 O Si  H  C                             
   1.00000000000000     
    20.2399997711181641    0.0000000000000000    0.0000000000000000
     0.0000000000000010   19.9300003051757813    0.0000000000000000
     0.0000000000000010    0.0000000000000010   13.2899999618530273
   O    Si   H    C 
   192    96     4     2
Selective dynamics
Direct
  0.5102268903724863  0.0513778111630074  0.7130144322805450   F   F   F
  0.3975118828657642  0.0591511328539127  0.8086989873760402   F   F   F
  0.4165885237073965  0.1322786608763735  0.6435916186716071   F   F   F
  0.4016666287893642  0.0001512140449975  0.6299500084811314   F   F   F
  0.3261404823661209  0.0384465918037122  0.9722421753674269   F   F   F
  0.3169119097249791  0.9541753449758801  0.8149413668503058   F   F   F
  0.2672981950741402  0.0767058886317997  0.8039714268088431   F   F   F
  0.2972792008283989  0.1228650384514935  0.1183643510992027   F   F   F
  0.2010256718907613  0.0541273277346974  0.0270630310933200   F   F   F
  0.2859174076972053  0.9917256158430732  0.1473241850015725   F   F   F
  0.1120388551374418  0.1357512595732615  0.1082092641301315   F   F   F
  0.0785990706487212  0.0579361624850350  0.9545615519451118   F   F   F
  0.1372924321306002  0.0764869907004950  0.7785220336131360   F   F   F
  0.0954279784582752  0.9552727783395625  0.8276827418837769   F   F   F
  0.2121407562787425  0.1467517264020657  0.6588530231668770   F   F   F
  0.5024581549628380  0.8660845818732312  0.7159974922715975   F   F   F
  0.3898602097230608  0.8421146845156429  0.8064992404012443   F   F   F
  0.4379094988724646  0.7517919787968808  0.6767723630953668   F   F   F
  0.3149947081575348  0.8663799936881134  0.9644916638827397   F   F   F
  0.2593755536924434  0.8365692151149844  0.7888028599380306   F   F   F
  0.2747474916810901  0.7514601692374541  0.0432140091407263   F   F   F
  0.1907896532070268  0.8536081781176676  0.0234997673616633   F   F   F
  0.1094074270517496  0.7524396845728134  0.0693982550846926   F   F   F
  0.0699167420183642  0.8519233474834706  0.9492526015245630   F   F   F
  0.1293725543561806  0.8334249321292333  0.7717854592721096   F   F   F
  0.2025135548615395  0.7523168373172595  0.6618101289227738   F   F   F
  0.9924753064702116  0.9505775445747418  0.2141106043019434   F   F   F
  0.4928583204409236  0.5498983035741674  0.2863038013434718   F   F   F
  0.0089333355982646  0.4531192348636921  0.7849527991850209   F   F   F
  0.4921293547694887  0.9520505499035607  0.2862373820494639   F   F   F
  0.0101039189106871  0.0529646611811714  0.7850809328824511   F   F   F
  0.5095979156978743  0.4544013305301178  0.7126756780825261   F   F   F
  0.9933603532212629  0.5516293424257910  0.2138376500306265   F   F   F
  0.1052313700486849  0.9443833243032458  0.3099763595910687   F   F   F
  0.6061261364701238  0.5599164439000290  0.1930632138574069   F   F   F
  0.8955973594266453  0.4424562158609717  0.6922288493405588   F   F   F
  0.6049500779574544  0.9452749252635257  0.1904871628836702   F   F   F
  0.8970513122932147  0.0599233125069674  0.6901914569933041   F   F   F
  0.3961074418961488  0.4433298843420062  0.8049889283410891   F   F   F
  0.1068097867454370  0.5614112726109326  0.3068638122294018   F   F   F
  0.0872898590939784  0.8708018819499301  0.1456082615724199   F   F   F
  0.5838848601930806  0.6326733026038411  0.3577304320538417   F   F   F
  0.9177880906626399  0.3702476108188506  0.8566529781738765   F   F   F
  0.5863075290862199  0.8719546267602354  0.3554122821469292   F   F   F
  0.9159012815220109  0.1331175130327651  0.8547209547407206   F   F   F
  0.4192195339276878  0.3715254563156094  0.6395708096845212   F   F   F
  0.0852154942268868  0.6334007249608007  0.1420048838226435   F   F   F
  0.1007314170028977  0.0031271324980153  0.1311166402767512   F   F   F
  0.6014317846103481  0.5008106709347686  0.3719956633781933   F   F   F
  0.9000383364611935  0.5020806171176417  0.8707479984849442   F   F   F
  0.6002154105571762  0.0042898085948480  0.3692568250754249   F   F   F
  0.9019951007153608  0.0008654452892216  0.8689727791248956   F   F   F
  0.4011388958188462  0.5033424133465729  0.6267181958972472   F   F   F
  0.1020084474705030  0.5012764225807160  0.1291255566712621   F   F   F
  0.1761094552273406  0.9661322884982866  0.4730134615291206   F   F   F
  0.6762644761352234  0.5383819021940468  0.0284880558008993   F   F   F
  0.8272593987687813  0.4662527323889023  0.5272620554321819   F   F   F
  0.6767644590909754  0.9653420429333650  0.0272824292203850   F   F   F
  0.8266391920877894  0.0378154319192276  0.5265913933567106   F   F   F
  0.3261166093745800  0.4653608669793456  0.9699045996562887   F   F   F
  0.1753600424393014  0.5373544841212805  0.4714348580922447   F   F   F
  0.1848989492640243  0.0500157753239918  0.3150106894104070   F   F   F
  0.6857271973654164  0.4542459435373516  0.1860695908589918   F   F   F
  0.8188430100619755  0.5499653653836631  0.6856051695617751   F   F   F
  0.6859936696879458  0.0498814855813308  0.1843981590137389   F   F   F
  0.8181206286496376  0.9538548799181257  0.6845834287903827   F   F   F
  0.3171280111554182  0.5493461032553739  0.8123147871684964   F   F   F
  0.1835725714446284  0.4537767025408783  0.3129685151818009   F   F   F
  0.2357840258031345  0.9281196380123333  0.3050911083666037   F   F   F
  0.7364290697126066  0.5763530276250677  0.1956357489791571   F   F   F
  0.7645586246481813  0.4295420280981901  0.6929417927961268   F   F   F
  0.7350700384903419  0.9272404533846128  0.1960357556419225   F   F   F
  0.7663455907970089  0.0754073361124910  0.6940653594845827   F   F   F
  0.2657152642356095  0.4275045337567960  0.8029934011599522   F   F   F
  0.2378820869414895  0.5741119254933338  0.3056141920306032   F   F   F
  0.2022328309699617  0.8815780803140427  0.6200117729692707   F   F   F
  0.7050892253548398  0.6241574698028458  0.8840335123606948   F   F   F
  0.8001851698938083  0.3809172064059538  0.3815644401430802   F   F   F
  0.7050705416594383  0.8806028128415448  0.8812588216077870   F   F   F
  0.7995614317290034  0.1225773800907675  0.3801808276327350   F   F   F
  0.2966000336369135  0.3792497019048255  0.1135820159626846   F   F   F
  0.2016697449244020  0.6235357038927489  0.6163488249788571   F   F   F
  0.3003033346547923  0.9483906057266154  0.5300358761302846   F   F   F
  0.8013816152831552  0.5553336329512959  0.9745959042393153   F   F   F
  0.7029314761334859  0.4489616130327150  0.4708546189975777   F   F   F
  0.8017611829736850  0.9491044201728798  0.9718788719723861   F   F   F
  0.7022690564150977  0.0544469476892075  0.4695213922495469   F   F   F
  0.2007877152573698  0.4490209751862082  0.0237520439711929   F   F   F
  0.2994568267717597  0.5553944257688386  0.5286114538669224   F   F   F
  0.2151812840703684  0.0126661555744718  0.6484577920706869   F   F   F
  0.7172696857916776  0.4933011013874875  0.8526422843761168   F   F   F
  0.7880863810507179  0.5122057874444081  0.3514445346332380   F   F   F
  0.7167316037158713  0.0116706301604026  0.8520100657531202   F   F   F
  0.7880754334434315  0.9912249460742970  0.3509537798817988   F   F   F
  0.2852941225634993  0.5101428022325010  0.1460866642979326   F   F   F
  0.2138902483549359  0.4926276690850244  0.6482173750289846   F   F   F
  0.3902631068938760  0.8672393387689752  0.6098027228532885   F   F   F
  0.8903577381246777  0.6351976519843063  0.8889841049849707   F   F   F
  0.6135686134870753  0.3675600925102032  0.3901232955634626   F   F   F
  0.8910107362974671  0.8681902286934715  0.8891843624564544   F   F   F
  0.6130791299344054  0.1369679178485441  0.3905741349247833   F   F   F
  0.1121897762749668  0.3681305615332420  0.1077075897225654   F   F   F
  0.3892023895568073  0.6366042015360520  0.6089807935828873   F   F   F
  0.4218462522069331  0.9434407159013745  0.4539239033383922   F   F   F
  0.9243917338343195  0.5593862803423377  0.0449322234863274   F   F   F
  0.5815704605417906  0.4424301608219992  0.5470446708164403   F   F   F
  0.9241991799864095  0.9446365363079678  0.0444805184638355   F   F   F
  0.5808396724815594  0.0604226565566606  0.5458106690042612   F   F   F
  0.0777445735837290  0.4453406395917057  0.9538991304077769   F   F   F
  0.4205823683269685  0.5619091302546835  0.4516162625738218   F   F   F
  0.3653579980759645  0.9287302802153192  0.2754225339388867   F   F   F
  0.8665385044192320  0.5755898343818657  0.2224205863799824   F   F   F
  0.6357163376715249  0.4299903163635364  0.7280621851911491   F   F   F
  0.8653445131938469  0.9273126650509766  0.2206611181016740   F   F   F
  0.6368960652433771  0.0750457238964160  0.7247903566185556   F   F   F
  0.1357828989945418  0.4283169281990524  0.7770287100077269   F   F   F
  0.3667195191949233  0.5737537323937687  0.2703656130163807   F   F   F
  0.4067247740027256  0.0490296882631611  0.3325254379648825   F   F   F
  0.9078083712678122  0.4548986313525560  0.1685372025714500   F   F   F
  0.5963415876786513  0.5497258803808336  0.6648326283469785   F   F   F
  0.9075076278106522  0.0482219725027306  0.1697710519513080   F   F   F
  0.5961775039036965  0.9547762627132101  0.6669483357311776   F   F   F
  0.0950469636716491  0.5494553972860885  0.8298450255719843   F   F   F
  0.4065362125144745  0.4542631492369864  0.3343938310187724   F   F   F
  0.2887193971948676  0.8577751986258448  0.1584045379516539   F   F   F
  0.7909215795221698  0.6464943381845174  0.3405891601225122   F   F   F
  0.7146022246208616  0.3592174377079331  0.8417956145845267   F   F   F
  0.7905273424095753  0.8570080827918005  0.3404372617180371   F   F   F
  0.7139873812361515  0.1457286872619008  0.8411794409835025   F   F   F
  0.2108736440025680  0.3582135905333388  0.6573366924939066   F   F   F
  0.2875214870060105  0.6442649393312223  0.1565615593685976   F   F   F
  0.0010158751592826  0.1376068286646799  0.2171537618033810   F   F   F
  0.5019191112284886  0.3675736422758931  0.2834071135210792   F   F   F
  0.0011079653071704  0.6379513122945824  0.7798406174595840   F   F   F
  0.5010635659368248  0.1373348374972849  0.2841908936620214   F   F   F
  0.0025971918528498  0.8650433370989106  0.7814786126865272   F   F   F
  0.5010325761047483  0.6365237311789542  0.7154821555787549   F   F   F
  0.0019595524038181  0.3664496762534313  0.2179760375022610   F   F   F
  0.1145876021009471  0.1634808951923148  0.3041564544732864   F   F   F
  0.6147853607617790  0.3411741037560674  0.1939511825239109   F   F   F
  0.8870184346174455  0.6645864622782014  0.6937912650066096   F   F   F
  0.6136927425123346  0.1622657677111476  0.1939481363241455   F   F   F
  0.8891984597234597  0.8407152242446827  0.6931867371312634   F   F   F
  0.3882382786444296  0.6623233284755869  0.8054059078481970   F   F   F
  0.1162009004175957  0.3389083100106163  0.3030569894582058   F   F   F
  0.0646273704210927  0.2517906112804198  0.1732523037635119   F   F   F
  0.5647426989369393  0.2522220296338631  0.3231727211011872   F   F   F
  0.9372122466746333  0.7518235814550565  0.8250738728269056   F   F   F
  0.1867208129381126  0.1375113281765721  0.4648316042314349   F   F   F
  0.6887512497561730  0.3671388291883488  0.0356086772369437   F   F   F
  0.8143701227284481  0.6364592383968883  0.5348347435415093   F   F   F
  0.6875616761094108  0.1378585103652625  0.0350292113338568   F   F   F
  0.8156168930766015  0.8667009671092814  0.5344056686874978   F   F   F
  0.3135392547490881  0.6363978198560005  0.9628494372723040   F   F   F
  0.1879096645054545  0.3668156620453118  0.4631753928548790   F   F   F
  0.2456680893100653  0.1663444003225436  0.2919912781709115   F   F   F
  0.7457442877414380  0.3375851419293312  0.2099702959376444   F   F   F
  0.7558293467194304  0.6651203206865972  0.7082051120399271   F   F   F
  0.7444718196332900  0.1671598013437716  0.2097178025416895   F   F   F
  0.7583820446045735  0.8371121629475340  0.7086619011463924   F   F   F
  0.2574271564438817  0.6659618690795881  0.7876720266148993   F   F   F
  0.2475739258282275  0.3390470507068670  0.2907140714197212   F   F   F
  0.2282270266228039  0.2521768737007690  0.5423990956781850   F   F   F
  0.7285063878211560  0.2523247068693166  0.9555388384430117   F   F   F
  0.7745634169055009  0.7517519957099310  0.4572199047266778   F   F   F
  0.3109472178170378  0.1488522715248379  0.5257378979584715   F   F   F
  0.8128430490130327  0.3540252887599920  0.9761325447238960   F   F   F
  0.6909099050351699  0.6491289857031362  0.4719553735739410   F   F   F
  0.8118985788068045  0.1497910637669477  0.9760201370342401   F   F   F
  0.6915803854864109  0.8548233127626546  0.4736282295726184   F   F   F
  0.1895337584570456  0.6505855609766087  0.0217805087924532   F   F   F
  0.3114063694592062  0.3551152074663619  0.5270363911983793   F   F   F
  0.3898748695601810  0.2516061320236673  0.5736885760895163   F   F   F
  0.8923921007931312  0.2515662390375937  0.9297828406861370   F   F   F
  0.6122913915436499  0.7524281046834460  0.4251900721538533   F   F   F
  0.4305656007659664  0.1560036233879103  0.4475592248082165   F   F   F
  0.9331609957702227  0.3487278309087998  0.0526703810038711   F   F   F
  0.5722737416708696  0.6583615235991047  0.5536803078425763   F   F   F
  0.9325643409622728  0.1530238186820085  0.0510101349105838   F   F   F
  0.5718757158026193  0.8481079603921060  0.5514051211744970   F   F   F
  0.0690320801506488  0.6553409967458492  0.9461087578588376   F   F   F
  0.4295806886151752  0.3447672208983406  0.4438111805183098   F   F   F
  0.3750162473380456  0.1692531273232589  0.2658243038282606   F   F   F
  0.8755858974172739  0.3340781112508608  0.2321968319571326   F   F   F
  0.6266775827041116  0.6691228204033308  0.7365345740901432   F   F   F
  0.8744029737951635  0.1695379976609814  0.2299726832123099   F   F   F
  0.6287868976665649  0.8343656096118792  0.7319649786955935   F   F   F
  0.1275304073559909  0.6703733482776499  0.7672969542739452   F   F   F
  0.3764831011353067  0.3355121150220910  0.2598485565134396   F   F   F
  0.2988449338088799  0.2514837546647399  0.1624144046049949   F   F   F
  0.8005317617535326  0.2518045651877117  0.3369911697279520   F   F   F
  0.7039845158973250  0.7520020431045111  0.8368622735779425   F   F   F
  0.4315202683721679  0.0607455467293647  0.6976595393716636   F   F   F
  0.3268669728241775  0.0318826953938327  0.8506455287148356   F   F   F
  0.2771902740707688  0.0519497521288343  0.0670542750803804   F   F   F
  0.1233442283169524  0.0627613674535397  0.0558604518548549   F   F   F
  0.0803008477899283  0.0352499467676139  0.8368869084258534   F   F   F
  0.2078961767469139  0.0771206849122734  0.7219020208572928   F   F   F
  0.4303466496210433  0.8312276165094588  0.7018087272795412   F   F   F
  0.3203280176544610  0.8748785407474031  0.8433253910073404   F   F   F
  0.2670033119171649  0.8318843894144905  0.0476824655049271   F   F   F
  0.1144373755893611  0.8320841925837499  0.0467444764028073   F   F   F
  0.0746548918623802  0.8766329995676614  0.8325683304103393   F   F   F
  0.1985036232189756  0.8272216191041792  0.7102990588694311   F   F   F
  0.0713243955195964  0.9423242868470254  0.1989667607726844   F   F   F
  0.5711915936026628  0.5607713850685911  0.3034019356876101   F   F   F
  0.9305972173448609  0.4421173780060101  0.8024543965155004   F   F   F
  0.5709237461944738  0.9434315285459363  0.3014857388834145   F   F   F
  0.9313266790465278  0.0616283578676118  0.8009751977556050   F   F   F
  0.4313802396890196  0.4431719296434267  0.6948743010468661   F   F   F
  0.0717850879750230  0.5618170181653710  0.1966673629634670   F   F   F
  0.1756726491699396  0.9723885550956552  0.3514787405476767   F   F   F
  0.6762280255089550  0.5319431703747313  0.1501667619511480   F   F   F
  0.8264535924854570  0.4722525887493205  0.6488370342962071   F   F   F
  0.6758242468723736  0.9721690753164509  0.1488305193327335   F   F   F
  0.8269061158959587  0.0315611142049264  0.6481486086118196   F   F   F
  0.3262347715551499  0.4716166080376993  0.8482076924444470   F   F   F
  0.1760148061319740  0.5314318855070965  0.3498707206219152   F   F   F
  0.2239735937886422  0.9520548923591647  0.5688290549094432   F   F   F
  0.7253977307586297  0.5528783658229273  0.9342449310502232   F   F   F
  0.7791843487556065  0.4519738888452522  0.4317026005436020   F   F   F
  0.7255397968277606  0.9514929627187740  0.9324149743780055   F   F   F
  0.7786673402928344  0.0516337374094249  0.4307910845667564   F   F   F
  0.2768904122153728  0.4508524364989768  0.0640757021226150   F   F   F
  0.2230886965108780  0.5523316505694780  0.5671173341145277   F   F   F
  0.3782585839544197  0.9398197480190262  0.5565267925669133   F   F   F
  0.8788499594423271  0.5632771074437528  0.9443423874535171   F   F   F
  0.6250845128319114  0.4399523132507142  0.4442799639011454   F   F   F
  0.8794208158226695  0.9405984571716530  0.9431485903934700   F   F   F
  0.6244076745997731  0.0640274810396306  0.4432068256960662   F   F   F
  0.1233569993188937  0.4408526742985472  0.0543963771001401   F   F   F
  0.3773952980795556  0.5642963562248369  0.5546995954111651   F   F   F
  0.4215046819506370  0.9687874063898221  0.3374719991972199   F   F   F
  0.9229260031329858  0.5350296753597377  0.1618860229376935   F   F   F
  0.5808684978207097  0.4695472230697177  0.6626067357534779   F   F   F
  0.9223649907632847  0.9681339066283741  0.1617975366796500   F   F   F
  0.5810376462474736  0.0349487548744563  0.6621915258356026   F   F   F
  0.0793903105880673  0.4694702116432268  0.8368377284598623   F   F   F
  0.4216006980631946  0.5345163971982458  0.3362085690786927   F   F   F
  0.2939872347184078  0.9275101529214851  0.2210326927862880   F   F   F
  0.7956458673066180  0.5766652817409295  0.2778962959944664   F   F   F
  0.7080014900451914  0.4289200981931174  0.7795255552651810   F   F   F
  0.7948311353101687  0.9266699525236746  0.2773836464316517   F   F   F
  0.7084560434438814  0.0760185427409894  0.7786127391221669   F   F   F
  0.2064884002511675  0.4276837103851818  0.7206955872447125   F   F   F
  0.2944005313022586  0.5746583433201735  0.2189660822860873   F   F   F
  0.0728210368291968  0.1726564833286446  0.2002848664914083   F   F   F
  0.5734598682403487  0.3315561380618988  0.2981155906766233   F   F   F
  0.9292369786742469  0.6727148193470285  0.7973816913431051   F   F   F
  0.5729051611597455  0.1727829891903809  0.2984236827183153   F   F   F
  0.9302891640748996  0.8310519393294697  0.7975293273238719   F   F   F
  0.4293703284516752  0.6723759108434137  0.7011412904698346   F   F   F
  0.0734445503164167  0.3308858022251329  0.1999689005531096   F   F   F
  0.1828077241265120  0.1292916116018787  0.3434821316893633   F   F   F
  0.6837469766880844  0.3750575270661329  0.1568755270746536   F   F   F
  0.8190442222325203  0.6290256425040681  0.6561386090367733   F   F   F
  0.6828874577620994  0.1292185677087048  0.1562301020027093   F   F   F
  0.8203885415037320  0.8746875089366881  0.6556606476750062   F   F   F
  0.3190683847862061  0.6285000538278496  0.8416442551767602   F   F   F
  0.1837730944284530  0.3746076295688567  0.3418969333742652   F   F   F
  0.2348044256781563  0.1717276025656460  0.5481808369085641   F   F   F
  0.7365159976252613  0.3327247505979471  0.9520707028753392   F   F   F
  0.7673284307394681  0.6713890238562641  0.4508751459773919   F   F   F
  0.7358043266093901  0.1718555556653243  0.9517159311075574   F   F   F
  0.7677472305990278  0.8321832171531156  0.4511229692777690   F   F   F
  0.2659881105604711  0.6711253927311560  0.0463442081213614   F   F   F
  0.2349845971619189  0.3326085920990778  0.5477431572933327   F   F   F
  0.3869920669942459  0.1722404175327696  0.5474480590320780   F   F   F
  0.8889485680270752  0.3310628263979183  0.9540088809499281   F   F   F
  0.6148536808379390  0.6731828003358515  0.4523441339123693   F   F   F
  0.8881356759445680  0.1719661110153723  0.9530862205435753   F   F   F
  0.6154942145698996  0.8317589441924298  0.4515870345080799   F   F   F
  0.1133938171772613  0.6730238424581714  0.0446503337997939   F   F   F
  0.3874616359171270  0.3307521391598414  0.5458349534737934   F   F   F
  0.4279929502164563  0.1276721968655465  0.3326235294825821   F   F   F
  0.9292870193607996  0.3763464977163622  0.1678958560123078   F   F   F
  0.5744135592508499  0.6281786052094844  0.6675285201828913   F   F   F
  0.9285238216363965  0.1268754956575435  0.1670095555011599   F   F   F
  0.5751702623503903  0.8760711523575253  0.6665202216152153   F   F   F
  0.0735179592845157  0.6280000646992079  0.8307329571781565   F   F   F
  0.4282610029644971  0.3757684352604329  0.3304654796225108   F   F   F
  0.3041177599491931  0.1762956501639508  0.2094549174202669   F   F   F
  0.8053574874066598  0.3272533699043336  0.2904589280087677   F   F   F
  0.6979993434661438  0.6763669727981423  0.7913818902462424   F   F   F
  0.8046435758943815  0.1765778963562568  0.2895100693669619   F   F   F
  0.6991282388066651  0.8273257323446757  0.7898616973635626   F   F   F
  0.1974465993041079  0.6768356334139298  0.7080336244077756   F   F   F
  0.3047230692261067  0.3274133273757585  0.2065177617017540   F   F   F
  0.8847059951862306  0.7565749204710954  0.0112262794349505   T   T   T
  0.8867884177637819  0.7550829660425578  0.1514265023748749   T   T   T
  0.7646584008040023  0.7317167453014477  0.0149033677285786   T   T   T
  0.7671687981553958  0.7299583427088550  0.1551018733501266   T   T   T
  0.8581388219549666  0.7500526686558615  0.0820767773169422   T   T   T
  0.7935764022143629  0.7365822380351473  0.0828985903351014   T   T   T
 
  0.00000000E+00  0.00000000E+00  0.00000000E+00
  0.00000000E+00  0.00000000E+00  0.00000000E+00
  0.00000000E+00  0.00000000E+00  0.00000000E+00
  0.00000000E+00  0.00000000E+00  0.00000000E+00
  0.00000000E+00  0.00000000E+00  0.00000000E+00
  0.00000000E+00  0.00000000E+00  0.00000000E+00
  0.00000000E+00  0.00000000E+00  0.00000000E+00
  0.00000000E+00  0.00000000E+00  0.00000000E+00
  0.00000000E+00  0.00000000E+00  0.00000000E+00
  0.00000000E+00  0.00000000E+00  0.00000000E+00
  0.00000000E+00  0.00000000E+00  0.00000000E+00
  0.00000000E+00  0.00000000E+00  0.00000000E+00
  0.00000000E+00  0.00000000E+00  0.00000000E+00
  0.00000000E+00  0.00000000E+00  0.00000000E+00
  0.00000000E+00  0.00000000E+00  0.00000000E+00
  0.00000000E+00  0.00000000E+00  0.00000000E+00
  0.00000000E+00  0.00000000E+00  0.00000000E+00
  0.00000000E+00  0.00000000E+00  0.00000000E+00
  0.00000000E+00  0.00000000E+00  0.00000000E+00
  0.00000000E+00  0.00000000E+00  0.00000000E+00
  0.00000000E+00  0.00000000E+00  0.00000000E+00
  0.00000000E+00  0.00000000E+00  0.00000000E+00
  0.00000000E+00  0.00000000E+00  0.00000000E+00
  0.00000000E+00  0.00000000E+00  0.00000000E+00
  0.00000000E+00  0.00000000E+00  0.00000000E+00
  0.00000000E+00  0.00000000E+00  0.00000000E+00
  0.00000000E+00  0.00000000E+00  0.00000000E+00
  0.00000000E+00  0.00000000E+00  0.00000000E+00
  0.00000000E+00  0.00000000E+00  0.00000000E+00
  0.00000000E+00  0.00000000E+00  0.00000000E+00
  0.00000000E+00  0.00000000E+00  0.00000000E+00
  0.00000000E+00  0.00000000E+00  0.00000000E+00
  0.00000000E+00  0.00000000E+00  0.00000000E+00
  0.00000000E+00  0.00000000E+00  0.00000000E+00
  0.00000000E+00  0.00000000E+00  0.00000000E+00
  0.00000000E+00  0.00000000E+00  0.00000000E+00
  0.00000000E+00  0.00000000E+00  0.00000000E+00
  0.00000000E+00  0.00000000E+00  0.00000000E+00
  0.00000000E+00  0.00000000E+00  0.00000000E+00
  0.00000000E+00  0.00000000E+00  0.00000000E+00
  0.00000000E+00  0.00000000E+00  0.00000000E+00
  0.00000000E+00  0.00000000E+00  0.00000000E+00
  0.00000000E+00  0.00000000E+00  0.00000000E+00
  0.00000000E+00  0.00000000E+00  0.00000000E+00
  0.00000000E+00  0.00000000E+00  0.00000000E+00
  0.00000000E+00  0.00000000E+00  0.00000000E+00
  0.00000000E+00  0.00000000E+00  0.00000000E+00
  0.00000000E+00  0.00000000E+00  0.00000000E+00
  0.00000000E+00  0.00000000E+00  0.00000000E+00
  0.00000000E+00  0.00000000E+00  0.00000000E+00
  0.00000000E+00  0.00000000E+00  0.00000000E+00
  0.00000000E+00  0.00000000E+00  0.00000000E+00
  0.00000000E+00  0.00000000E+00  0.00000000E+00
  0.00000000E+00  0.00000000E+00  0.00000000E+00
  0.00000000E+00  0.00000000E+00  0.00000000E+00
  0.00000000E+00  0.00000000E+00  0.00000000E+00
  0.00000000E+00  0.00000000E+00  0.00000000E+00
  0.00000000E+00  0.00000000E+00  0.00000000E+00
  0.00000000E+00  0.00000000E+00  0.00000000E+00
  0.00000000E+00  0.00000000E+00  0.00000000E+00
  0.00000000E+00  0.00000000E+00  0.00000000E+00
  0.00000000E+00  0.00000000E+00  0.00000000E+00
  0.00000000E+00  0.00000000E+00  0.00000000E+00
  0.00000000E+00  0.00000000E+00  0.00000000E+00
  0.00000000E+00  0.00000000E+00  0.00000000E+00
  0.00000000E+00  0.00000000E+00  0.00000000E+00
  0.00000000E+00  0.00000000E+00  0.00000000E+00
  0.00000000E+00  0.00000000E+00  0.00000000E+00
  0.00000000E+00  0.00000000E+00  0.00000000E+00
  0.00000000E+00  0.00000000E+00  0.00000000E+00
  0.00000000E+00  0.00000000E+00  0.00000000E+00
  0.00000000E+00  0.00000000E+00  0.00000000E+00
  0.00000000E+00  0.00000000E+00  0.00000000E+00
  0.00000000E+00  0.00000000E+00  0.00000000E+00
  0.00000000E+00  0.00000000E+00  0.00000000E+00
  0.00000000E+00  0.00000000E+00  0.00000000E+00
  0.00000000E+00  0.00000000E+00  0.00000000E+00
  0.00000000E+00  0.00000000E+00  0.00000000E+00
  0.00000000E+00  0.00000000E+00  0.00000000E+00
  0.00000000E+00  0.00000000E+00  0.00000000E+00
  0.00000000E+00  0.00000000E+00  0.00000000E+00
  0.00000000E+00  0.00000000E+00  0.00000000E+00
  0.00000000E+00  0.00000000E+00  0.00000000E+00
  0.00000000E+00  0.00000000E+00  0.00000000E+00
  0.00000000E+00  0.00000000E+00  0.00000000E+00
  0.00000000E+00  0.00000000E+00  0.00000000E+00
  0.00000000E+00  0.00000000E+00  0.00000000E+00
  0.00000000E+00  0.00000000E+00  0.00000000E+00
  0.00000000E+00  0.00000000E+00  0.00000000E+00
  0.00000000E+00  0.00000000E+00  0.00000000E+00
  0.00000000E+00  0.00000000E+00  0.00000000E+00
  0.00000000E+00  0.00000000E+00  0.00000000E+00
  0.00000000E+00  0.00000000E+00  0.00000000E+00
  0.00000000E+00  0.00000000E+00  0.00000000E+00
  0.00000000E+00  0.00000000E+00  0.00000000E+00
  0.00000000E+00  0.00000000E+00  0.00000000E+00
  0.00000000E+00  0.00000000E+00  0.00000000E+00
  0.00000000E+00  0.00000000E+00  0.00000000E+00
  0.00000000E+00  0.00000000E+00  0.00000000E+00
  0.00000000E+00  0.00000000E+00  0.00000000E+00
  0.00000000E+00  0.00000000E+00  0.00000000E+00
  0.00000000E+00  0.00000000E+00  0.00000000E+00
  0.00000000E+00  0.00000000E+00  0.00000000E+00
  0.00000000E+00  0.00000000E+00  0.00000000E+00
  0.00000000E+00  0.00000000E+00  0.00000000E+00
  0.00000000E+00  0.00000000E+00  0.00000000E+00
  0.00000000E+00  0.00000000E+00  0.00000000E+00
  0.00000000E+00  0.00000000E+00  0.00000000E+00
  0.00000000E+00  0.00000000E+00  0.00000000E+00
  0.00000000E+00  0.00000000E+00  0.00000000E+00
  0.00000000E+00  0.00000000E+00  0.00000000E+00
  0.00000000E+00  0.00000000E+00  0.00000000E+00
  0.00000000E+00  0.00000000E+00  0.00000000E+00
  0.00000000E+00  0.00000000E+00  0.00000000E+00
  0.00000000E+00  0.00000000E+00  0.00000000E+00
  0.00000000E+00  0.00000000E+00  0.00000000E+00
  0.00000000E+00  0.00000000E+00  0.00000000E+00
  0.00000000E+00  0.00000000E+00  0.00000000E+00
  0.00000000E+00  0.00000000E+00  0.00000000E+00
  0.00000000E+00  0.00000000E+00  0.00000000E+00
  0.00000000E+00  0.00000000E+00  0.00000000E+00
  0.00000000E+00  0.00000000E+00  0.00000000E+00
  0.00000000E+00  0.00000000E+00  0.00000000E+00
  0.00000000E+00  0.00000000E+00  0.00000000E+00
  0.00000000E+00  0.00000000E+00  0.00000000E+00
  0.00000000E+00  0.00000000E+00  0.00000000E+00
  0.00000000E+00  0.00000000E+00  0.00000000E+00
  0.00000000E+00  0.00000000E+00  0.00000000E+00
  0.00000000E+00  0.00000000E+00  0.00000000E+00
  0.00000000E+00  0.00000000E+00  0.00000000E+00
  0.00000000E+00  0.00000000E+00  0.00000000E+00
  0.00000000E+00  0.00000000E+00  0.00000000E+00
  0.00000000E+00  0.00000000E+00  0.00000000E+00
  0.00000000E+00  0.00000000E+00  0.00000000E+00
  0.00000000E+00  0.00000000E+00  0.00000000E+00
  0.00000000E+00  0.00000000E+00  0.00000000E+00
  0.00000000E+00  0.00000000E+00  0.00000000E+00
  0.00000000E+00  0.00000000E+00  0.00000000E+00
  0.00000000E+00  0.00000000E+00  0.00000000E+00
  0.00000000E+00  0.00000000E+00  0.00000000E+00
  0.00000000E+00  0.00000000E+00  0.00000000E+00
  0.00000000E+00  0.00000000E+00  0.00000000E+00
  0.00000000E+00  0.00000000E+00  0.00000000E+00
  0.00000000E+00  0.00000000E+00  0.00000000E+00
  0.00000000E+00  0.00000000E+00  0.00000000E+00
  0.00000000E+00  0.00000000E+00  0.00000000E+00
  0.00000000E+00  0.00000000E+00  0.00000000E+00
  0.00000000E+00  0.00000000E+00  0.00000000E+00
  0.00000000E+00  0.00000000E+00  0.00000000E+00
  0.00000000E+00  0.00000000E+00  0.00000000E+00
  0.00000000E+00  0.00000000E+00  0.00000000E+00
  0.00000000E+00  0.00000000E+00  0.00000000E+00
  0.00000000E+00  0.00000000E+00  0.00000000E+00
  0.00000000E+00  0.00000000E+00  0.00000000E+00
  0.00000000E+00  0.00000000E+00  0.00000000E+00
  0.00000000E+00  0.00000000E+00  0.00000000E+00
  0.00000000E+00  0.00000000E+00  0.00000000E+00
  0.00000000E+00  0.00000000E+00  0.00000000E+00
  0.00000000E+00  0.00000000E+00  0.00000000E+00
  0.00000000E+00  0.00000000E+00  0.00000000E+00
  0.00000000E+00  0.00000000E+00  0.00000000E+00
  0.00000000E+00  0.00000000E+00  0.00000000E+00
  0.00000000E+00  0.00000000E+00  0.00000000E+00
  0.00000000E+00  0.00000000E+00  0.00000000E+00
  0.00000000E+00  0.00000000E+00  0.00000000E+00
  0.00000000E+00  0.00000000E+00  0.00000000E+00
  0.00000000E+00  0.00000000E+00  0.00000000E+00