 O Si  H  C 
 1.0000000000000000
    20.2399997711181641    0.0000000000000000    0.0000000000000000
     0.0000000000000010   19.9300003051757812    0.0000000000000000
     0.0000000000000010    0.0000000000000010   13.2899999618530273
 192  96   4   2
Selective dynamics
Cartesian
 10.3269921443573995  1.0239597921580177  9.4759617778090899   F   F   F
  8.0456404182198114  1.1788820958300301 10.7476095113781529   F   F   F
  8.4317516244881769  2.6363137516343005  8.5533325875945678   F   F   F
  8.1297324747624913  0.0030136959629018  8.3720355886835520   F   F   F
  6.6010832884426049  0.7662405863809937 12.9210984735450332   F   F   F
  6.4142969802982197 19.0167149165604457 10.8305707343530013   F   F   F
  5.4101154071208990  1.5287483838405882 10.6847802316204881   F   F   F
  6.0169309567249556  2.4487002538336555  1.5730622215931382   F   F   F
  4.0687595530578964  1.0787576582708549  0.3596676821978926   F   F   F
  5.7869682663500903 19.7650918264031574  1.9579384130509190   F   F   F
  2.2676664023381066  2.7055226447230489  1.4381011161615467   F   F   F
  1.5908451719402712  1.1546677360073982 12.6861229889369458   F   F   F
  2.7787987948996600  1.5243857480028074 10.3465577970202869   F   F   F
  1.9314622621537327 19.0385867638336244 10.9999036080618495   F   F   F
  4.2937288585266193  2.9247619519782209  8.7561566527545178   F   F   F
 10.1697529414442549 17.2610659810415719  9.5156066449763568   F   F   F
  7.8907705555628365 16.7833459193897099 10.7183748741670417   F   F   F
  8.8632881569491495 14.9832143668505253  8.9943046797206048   F   F   F
  6.3754928210119273 17.2669535386022872 12.8180941762091525   F   F   F
  5.2497611473687034 16.6728247125422833 10.4831899784860223   F   F   F
  5.5608891687404975 14.9766014022298588  0.5743141798317556   F   F   F
  3.8615825372419188 17.0124112503856786  0.3123119073400563   F   F   F
  2.2144062984859794 14.9961231431625084  0.9223028074281847   F   F   F
  1.4151148424490472 16.9788325753319853 12.6155670380503615   F   F   F
  2.6185004705581001 16.6101591516767719 10.2570287242850178   F   F   F
  4.0988743040458298 14.9936747973219138  8.7954565881375970   F   F   F
 20.0876999757975625 18.9450107534677983  2.8455299230051820   F   F   F
  9.9754522929179501 10.9594733580487329  3.8049775089330717   F   F   F
  0.1808107104641782  9.0306664891144717 10.4320226712253259   F   F   F
  9.9606980278949955 18.9743677501207237  3.8040947965183043   F   F   F
  0.2045033164396982  1.0555857135043465 10.4337255680592964   F   F   F
 10.3142616970873355  9.0562186561375402  9.4714597345303098   F   F   F
 20.1056133218362660 10.9939729628899858  2.8419023607497564   F   F   F
  2.1298829056998425 18.8215599415665444  4.1195858071406750   F   F   F
 12.2679928634240625 11.1591348978004490  2.5658101048001143   F   F   F
 18.1268903498092868  8.8181525171360597  9.1997213813295495   F   F   F
 12.2441894393967754 18.8393295489770942  2.5315743874574723   F   F   F
 18.1563183554958556  1.1942716365509747  9.1726444371123197   F   F   F
  8.0172145333162721  8.8355647302297076 10.6983028269451435   F   F   F
  2.1618300592808519 11.1889268344649686  4.0782200528228376   F   F   F
  1.7667467280830889 17.3550817730097151  1.9351337907429738   F   F   F
 11.8178294366673651 12.6091791139710718  4.7542374283492679   F   F   F
 18.5760307449468769  7.3790349966103248 11.3849180472520697   F   F   F
 11.8668642545098919 17.3780559774309573  4.7234292161747451   F   F   F
 18.5378417283722783  2.6530320753673098 11.3592414558991504   F   F   F
  8.4850032707446648  7.4045024577507030  8.4998960363095684   F   F   F
  1.7247615836479371 12.6236766417672808  1.8872449005858491   F   F   F
  2.0388038570830114  0.0623237516398300  1.7425401442762887   F   F   F
 12.1729791828566256  9.9811568245652662  4.9438223521056885   F   F   F
 18.2167757239721197 10.0064668523773737 11.5722408666485563   F   F   F
 12.1483597722988996  0.0854958866044109  4.9074231911663917   F   F   F
 18.2563806320285842  0.0172483248782565 11.5486482014212086   F   F   F
  8.1190511595601027 10.0316144516050638  8.3290847995670347   F   F   F
  2.0646509534551511  9.9904392550111520  1.7160786432353601   F   F   F
  3.5644553334931195 19.2550168046109818  6.2863488856779455   F   F   F
 13.6875928421922453 10.7299514750285407  0.3786062605071867   F   F   F
 16.7437300417355068  9.2924170987999268  7.0073126965802857   F   F   F
 13.6977124971022644 19.2392672102609801  0.3625834832981613   F   F   F
 16.7311770586542288  0.7536615696906225  6.9983995976228082   F   F   F
  6.6006000990993510  9.2746422209151724 12.8900320924331577   F   F   F
  3.5492872188347264 10.7094750325246508  6.2653692460621349   F   F   F
  3.7423546907838636  0.9968144174708141  4.1864920502476082   F   F   F
 13.8791183177255739  9.0531217933243227  2.4728648554180519   F   F   F
 16.5733823362360297 10.9608098999324852  9.1116926773221891   F   F   F
 13.8845117174725505  0.9941380228585782  2.4506515262583610   F   F   F
 16.5587613366157491 19.0103280478617016  9.0981137425093834   F   F   F
  6.4186708732008064 10.9484680055267845 10.7956634904819992   F   F   F
  3.7155088040228708  9.0437698201213550  4.1593515548273183   F   F   F
  4.7722686282887139 18.4974246688254063  4.0546608185538373   F   F   F
 14.9053242024279236 11.4867160164566471  2.5999990964700586   F   F   F
 15.4746663878855593  8.5607727510827267  9.2091963998268778   F   F   F
 14.8778174108003221 18.4799025189266999  2.6053151850030232   F   F   F
 15.5108345823289291  1.5028682317344610  9.2241286010736356   F   F   F
  5.3780768873113685  8.5201654882369624 10.6717822707839982   F   F   F
  4.8147333852489265 11.4420508502872487  4.0616126004284716   F   F   F
  4.0931924525446490 17.5698514096951719  8.2399564391100704   F   F   F
 14.2710057597998823 12.4394585636484916 11.7488053455503891   F   F   F
 16.1957476555027604  7.5916800399174047  5.0709913949459864   F   F   F
 14.2706276018091440 17.5504143286707048 11.7119297055500891   F   F   F
 16.1831231951898715  2.4429672226166024  5.0526031847363067   F   F   F
  6.0031846129248274  7.5584466747009440  1.5095049878112867   F   F   F
  4.0817955911113222 12.4270667688704588  8.1912758604571554   F   F   F
  6.0781394246789642 18.9014250615573509  7.0441767735522003   F   F   F
 16.2199637099093081 11.0677994741936470 12.9523795301625722   F   F   F
 14.2273329160535624  8.9478050847542629  6.2576578685161488   F   F   F
 16.2276461598788835 18.9156513836892302 12.9162701714388106   F   F   F
 14.2139255411049383  1.0851276840617479  6.2399392850856996   F   F   F
  4.0639433108524701  8.9489881724914380  0.3156646634710399   F   F   F
  6.0610061053201232 11.0690110750659159  7.0252462017264934   F   F   F
  4.3552691403332080  0.2524364844646954  8.6180040318826929   F   F   F
 14.5175382762535676  9.8314911011962423 11.3316159268328427   F   F   F
 15.9508681720879135 10.2082615000798533  4.6706978518692130   F   F   F
 14.5066474951624329  0.2325956626584801 11.3232137413573959   F   F   F
 15.9506465925189698 19.7551134777585879  4.6641757212413095   F   F   F
  5.7743529753865177 10.1671462041770351  1.9414917629467563   F   F   F
  4.3291385777482692  9.8180695952025712  8.6148088894077066   F   F   F
  7.8989251942079104 17.2840802863261551  8.1042781634580621   F   F   F
 18.0208404158566928 12.6594893978941929 11.8145987213382266   F   F   F
 12.4186285965436429  7.3254727558987893  5.1847385831564097   F   F   F
 18.0340570987245741 17.3030315228114979 11.8172601431265445   F   F   F
 12.4087214495497413  2.7297706445207615  5.1907302382511826   F   F   F
  2.2707210461271972  7.3368422037020640  1.4314338633042090   F   F   F
  7.8774562755483588 12.6875219308896838  8.0933547234858221   F   F   F
  8.5381680481153523 18.8027737558295982  6.0326486580513787   F   F   F
 18.7096884812301170 11.1485687379338767  0.5971492484192921   F   F   F
 11.7709859882549370  8.8176332402013866  7.2702236542823542   F   F   F
 18.7057911913924961 18.8266064568980411  0.5911460886875873   F   F   F
 11.7561948380831680  1.2042235636137120  7.2538237702456030   F   F   F
  1.5735501515403454  8.8756390829698422 12.6773194067309518   F   F   F
  8.5125870386741571 11.1988491374569445  6.0019801123783303   F   F   F
  7.3948457974337432 18.5095947681172426  3.6603654655412901   F   F   F
 17.5387391311103933 11.4715055748866739  2.9559695845052580   F   F   F
 12.8668985289677078  8.5697071363478940  9.6759464134169697   F   F   F
 17.5145727489817844 18.4813416974592748  2.9325862511536780   F   F   F
 12.8907762147519840  1.4956613001577048  9.6324638118120021   F   F   F
  2.7482458445713407  8.5363565097190079 10.3267115263614304   F   F   F
  7.4224029845698318 11.4349120617035744  3.5931589866740645   F   F   F
  8.2321093327232955  0.9771617020474644  4.4192630578684815   F   F   F
 18.3740412266797115  9.0661298616804942  2.2398594157454288   F   F   F
 12.0699535981241901 10.9560369637530073  8.8356256053699944   F   F   F
 18.3679541791755199  0.9610639266955474  2.2562572739565998   F   F   F
 12.0666325425566132 19.0286912072488228  8.8637433564252781   F   F   F
  1.9237505229596010 10.9506462355922398 11.0286403581955987   F   F   F
  8.2282928482441395  9.0534647029232307  4.4440940014834043   F   F   F
  5.8436805331414874 17.0954599703853560  2.1051963033347842   F   F   F
 16.0082525885010689 12.8846323573118351  4.5264299250357425   F   F   F
 14.4635488627668156  7.1592036431435639 11.1874636857164518   F   F   F
 16.0002732294325121 17.0801713515787412  4.5244111952460289   F   F   F
 14.4511044328009994  2.9043727816025675 11.1792747385822704   F   F   F
  4.2680825063468610  7.1391969686475196  8.7360046181685878   F   F   F
  5.8194348311932016 12.8402004374852634  2.0807031180363005   F   F   F
  0.0205613129913790  2.7425041372813079  2.8859734860831296   F   F   F
 10.1588426963844576  7.3257428027331191  3.7664805278840578   F   F   F
  0.0224252175635210 12.7143698487183414 10.3640817762893267   F   F   F
 10.1415264598769852  2.7370833532322085  3.7768969659272007   F   F   F
  0.0525671625072943 17.2403139723714958 10.3858507327928979   F   F   F
 10.1408992256828725 12.6859181566481514  9.5087578203482028   F   F   F
  0.0396613402047487  7.3033421595624306  2.8969015300899517   F   F   F
  2.3192530402961147  3.2581742910732188  4.0422392683472976   F   F   F
 12.4432555611052376  6.7995999919764332  2.5776112083441332   F   F   F
 17.9532529136347350 13.2452083960201890  9.2204858854718292   F   F   F
 12.4211409679864904  3.2339568000028081  2.5775707243493167   F   F   F
 17.9973766212814112 16.7554546757623903  9.2124517100315053   F   F   F
  7.8579426709026299 13.2001041386434732 10.7038444845787613   F   F   F
  2.3519061978558766  6.7544427219382071  4.0276273783388499   F   F   F
  1.3080579625308857  5.0181869596592126  2.3025231104079995   F   F   F
 11.4303920972243098  5.0267851275748985  4.2949654511066981   F   F   F
 18.9691756581837936 14.9838442078375937 10.9652317383955307   F   F   F
  3.7792292111304437  2.7406008125241814  6.1776120025038512   F   F   F
 13.9403251374222901  7.3170769777656224  0.4732393191205773   F   F   F
 16.4828510976292790 12.6846328154819297  7.1079537212643036   F   F   F
 13.9162481670840759  2.7475201536507821  0.4655382172907371   F   F   F
 16.5080857291905758 17.2733505389841859  7.1022513164709000   F   F   F
  6.3460344443580521 12.6834087439433265 12.7962689846191324   F   F   F
  3.8032915665812403  7.3106362565063554  6.1556009533726002   F   F   F
  4.9723220714067589  3.3152439491926007  3.8805640757528641   F   F   F
 15.0938642131993923  6.7280719816744226  2.7905052250015401   F   F   F
 15.2979858046056840 13.2558481942624429  9.4120459119947331   F   F   F
 15.0681094589816507  3.3314948917945206  2.7871495877789476   F   F   F
 15.3496524092167483 16.6836456630106440  9.4181166392022799   F   F   F
  5.2103255875037213 13.2726202539915690 10.4681612036646978   F   F   F
  5.0108962020982126  6.7572078240567794  3.8635899980782606   F   F   F
  4.6193149666085676  5.0258851698145630  7.2084839608721865   F   F   F
 14.7449691227583006  5.0288314849088200 12.6991111264566783   F   F   F
 15.6771633808838793 14.9824175039153840  6.0764525163760261   F   F   F
  6.2935716174466165  2.9666258169161379  6.9870566438127648   F   F   F
 16.4519431259787083  7.0557241130265282 12.9728014821441011   F   F   F
 13.9840163197750673 12.9371408831619519  6.2722868967940393   F   F   F
 16.4328270492209398  2.9853359465878713 12.9713075839528695   F   F   F
 13.9975868439547462 17.0366288842311384  6.2945191529525992   F   F   F
  3.8361632277897062 12.9661704288067945  0.2894629610208732   F   F   F
  6.3028648465790083  7.0774461931771837  7.0043136189216240   F   F   F
  7.8910672706627238  5.0145102880158596  7.6243211543451874   F   F   F
 18.0620159158006821  5.0137152207911155 12.3568139172503386   F   F   F
 12.3927776247011252 14.9958923559639441  5.6507760427050018   F   F   F
  8.7146476609544479  3.1091522617295264  5.9480620806281745   F   F   F
 18.8871783408056473  6.9501457764357140  0.6999893615322752   F   F   F
 11.5828204004353026 13.1211453662461714  7.3584112701066564   F   F   F
 18.8751020476293263  3.0497647530316367  0.6779246910157513   F   F   F
 11.5747643569530023 16.9027919094366510  7.3281740393745833   F   F   F
  1.3972092864488874 13.0609462651390178 12.5737853558527615   F   F   F
  8.6947130392478886  6.8712108177184783  5.8982505721582950   F   F   F
  7.5903287602876945  3.3732148792044896  3.5328049877372161   F   F   F
 17.7218583633198783  6.6581768591821717  3.0858958878527196   F   F   F
 12.6839541304961330 13.3356180148384951  9.7885444615614272   F   F   F
 17.6979159894791351  3.3788923451221970  3.0563369511188583   F   F   F
 12.7266466648533410 16.6289068541929019  9.7278145389421447   F   F   F
  2.5812154156958012 13.3605410357552046 10.1973764930307169   F   F   F
  7.6200178808084660  6.6867565547804952  3.4533873061511975   F   F   F
  6.0486213918915386  5.0120713072150567  2.1584874310047764   F   F   F
 16.2027626746642923  5.0184650610357631  4.4786126328292424   F   F   F
 14.2486464406326032 14.9874009485656892 11.1218995839271315   F   F   F
  8.7339701330855597  1.2106587648543745  9.2718952516357831   F   F   F
  6.6157874551474203  0.6354221289288552 11.3050790441706592   F   F   F
  5.6103310837485134  1.0353585757814618  0.8911513132603233   F   F   F
  2.4964871529038066  1.2508340725023335  0.7423854030200879   F   F   F
  1.6252891408887462  0.7025314498360098 11.1222269810549133   F   F   F
  4.2078185697738570  1.5370152738369427  9.5940778296550207   F   F   F
  8.7102160898314498 16.5663666507040865  9.3270379587732215   F   F   F
  6.4834390040090533 17.4363295840874706 11.2077944143172292   F   F   F
  5.4041469720911435 16.5794561349017364  0.6336999647414983   F   F   F
  2.3162124557360793 16.5834382121260973  0.6212340896101434   F   F   F
  1.5110149942073920 17.4712959489106794 11.0648330793934146   F   F   F
  4.0177132885181823 16.4865271211943245  9.4398744652789759   F   F   F
  1.4436057489917595 18.7805233244357197  2.6442682430790412   F   F   F
 11.5609177237825751 11.1761738755508322  4.0322117137144504   F   F   F
 18.8352874660631464  8.8113994785832954 10.6646188990798176   F   F   F
 11.5554964923021046 18.8025906518329649  4.0067454582598092   F   F   F
 18.8500517707380091  1.2282531911089165 10.6449603476171983   F   F   F
  8.7311359525706465  8.8324166930388568  9.2348794344055118   F   F   F
  1.4529301641841474 11.1970133434888517  2.6137092462822373   F   F   F
  3.5556143789912880 19.3797041998058255  4.6711524484707976   F   F   F
 13.6868550815249979 10.6016275479045952  1.9957162606023204   F   F   F
 16.7274205227454331  9.4119942378940298  8.6230441610454207   F   F   F
 13.6786826020129020 19.3753299677393684  1.9779575962545719   F   F   F
 16.7365795964704702  0.6290130157358934  8.6138949837261549   F   F   F
  6.6029917016070350  9.3993191421172533 11.2726802002301145   F   F   F
  3.5625396358244976 10.5914376403365704  4.6497818637187809   F   F   F
  4.5332254870186910 18.9744542952623156  7.5597381180473677   F   F   F
 14.6820499045243462 11.0188659995760485 12.4161150980188353   F   F   F
 15.7706910404723182  9.0078397426173336  5.7373275447563286   F   F   F
 14.6849253217309688 18.9632550373577189 12.3917949739148376   F   F   F
 15.7602267893041486  1.0290604023271988  5.7252134974588236   F   F   F
  5.6042618798639765  8.9854891970139050  0.8515660787652767   F   F   F
  4.5153151663191862 11.0079699644079145  7.5369893487482784   F   F   F
  7.6559536526609575 18.7306078648294303  7.3962410519844477   F   F   F
 17.7879229779599370 11.2261129232524830 12.5503102932334532   F   F   F
 12.6517103966474629  8.7682497373494712  5.9044807032983124   F   F   F
 17.7994771109674232 18.7461275384789019 12.5344447303509430   F   F   F
 12.6380111909838462  1.2760677166594507  5.8902186965937071   F   F   F
  2.4967456379802306  8.7861939333076737  0.7229278495858488   F   F   F
  7.6384807467513269 11.2464265517705648  7.3719576018543185   F   F   F
  8.5312546662061219 19.3079333049996364  4.4850028564575100   F   F   F
 18.6800220921706668 10.6631415931977127  2.1514652386664541   F   F   F
 11.7567782629409052  9.3580762990738879  8.8060434928872890   F   F   F
 18.6686672019362767 19.2949090545545872  2.1502892563005087   F   F   F
 11.7602018270599338  0.6965286953134543  8.8005253530945211   F   F   F
  1.6068598681315098  9.3565414613205071 11.1215733793087566   F   F   F
  8.5331980323023000 10.6529119592824681  4.4682118702305127   F   F   F
  5.9503015634122143 18.4852776307788105  2.9375244786980166   F   F   F
 16.1038721721771338 11.4929392410810678  3.6932417631655112   F   F   F
 14.3299499964659312  8.5483776878848445 10.3598945997376699   F   F   F
 16.0873819967553651 18.4685324365940566  3.6864286504952930   F   F   F
 14.3391501571514741  1.5150495800268999 10.3477632732318430   F   F   F
  4.1793251738221766  8.5237364784953478  9.5780443269899038   F   F   F
  5.9586666861747970 11.4529409577428645  2.9100592252291952   F   F   F
  1.4738977687554622  3.4410437654304484  2.6617858680305617   F   F   F
 11.6068276019301013  6.6079139327565199  3.9619561887201442   F   F   F
 18.8077562356813281 13.4072065548825261 10.5972026475321623   F   F   F
 11.5956003307456363  3.4435650272934772  3.9660507319424956   F   F   F
 18.8290524679497473 16.5628654044531949 10.5991647297109743   F   F   F
  8.6904553495867809 13.4004521083020940  9.3181677235976839   F   F   F
  1.4865176815941166  6.5945541393252523  2.6575866807226105   F   F   F
  3.7000282944792904  2.5767818586820499  4.5648775170488269   F   F   F
 13.8390386516695685  7.4748966288865688  2.0848757488378613   F   F   F
 16.5774548705218443 12.5364812470694531  8.7200820890690238   F   F   F
 13.8216419888042950  2.5753260938688003  2.0762980496562986   F   F   F
 16.6046638922634742 17.4325223200416985  8.7137299825893333   F   F   F
  6.4579440350439246 12.5260062645920200 11.1854521191930036   F   F   F
  3.7195673891696250  7.4659301716285214  4.5438102315016264   F   F   F
  4.7524415219833660  3.4225311715404225  7.2853233016033485   F   F   F
 14.9070836233602027  6.6312043809566523 12.6530196048946166   F   F   F
 15.5307272625393153 13.3807834503470371  5.9921306728400126   F   F   F
 14.8926794021617948  3.4250812768561172 12.6483046881143135   F   F   F
 15.5392037716009046 16.5854117718237646  5.9954242444925478   F   F   F
  5.3835992968640518 13.3755292819430931  0.6159145241649685   F   F   F
  4.7560881927735110  6.6288893420386463  7.2795065395336085   F   F   F
  7.8327193473880463  3.4327515739917045  7.2755846836528617   F   F   F
 17.9923188134038341  6.5980822311428033 12.6787779914319785   F   F   F
 12.4446383594311154 13.4165334161326495  6.0116535224397945   F   F   F
 17.9758658778399649  3.4272846450162069 12.6665158346667468   F   F   F
 12.4576027620193237 16.5769560115878321  6.0015916713856594   F   F   F
  2.2950908337139744 13.4133653855819830  0.5934029344959885   F   F   F
  7.8422234222796527  6.5918902343931309  7.2541465108447678   F   F   F
  8.6625772144212370  2.5445069224927366  4.4205666941349699   F   F   F
 18.8087690591656589  7.5005858143389315  2.2313359199988096   F   F   F
 11.6261303077643312 12.5195997935299559  8.8714540077664683   F   F   F
 18.7933219373984315  2.5286286671741864  2.2195569862394953   F   F   F
 11.6414459783259225 17.4600983338412092  8.8580537198405143   F   F   F
  1.4880034790917041 12.5160414811056508 11.0404409692077774   F   F   F
  8.6680026019802945  7.4890650294158174  4.3918862115768666   F   F   F
  6.1553433917646494  3.5135723615687242  2.7836558445252972   F   F   F
 16.3004353607790371  6.5221597620631826  3.8601991421563566   F   F   F
 14.1275065519953280 13.4799939742777770 10.5174652911837363   F   F   F
 16.2859857919340172  3.5191975282674903  3.8475888108430016   F   F   F
 14.1503553934290842 16.4886020981091121 10.4972619278308841   F   F   F
  3.9963191247232319 13.4893343804935224  9.4097668413700202   F   F   F
  6.1675948513908541  6.5253477145174612  2.7446210451383068   F   F   F
 17.9064491400761376 15.0785383958772048  0.1491972532622356   T   T   T
 17.9485973725692283 15.0488037436611446  2.0124582107856264   T   T   T
 15.4766858572565873 14.5831149571601166  0.1980657565442686   T   T   T
 15.5274962990741976 14.5480699929530761  2.0613038909064825   T   T   T
 17.3687295599561971 14.9485499152091812  1.0908003674111852   T   T   T
 16.0619861991835542 14.6800842288276030  1.1167222623912147   T   T   T
