 O Si Al  C  H                          
   1.00000000000000     
    20.2399997711181641    0.0000000000000000    0.0000000000000000
     0.0000000000000010   19.9300003051757813    0.0000000000000000
     0.0000000000000010    0.0000000000000010   13.2899999618530273
   O    Si   Al   C    H 
   192    95     1     2     5
Selective dynamics
Direct
  0.5080042426592257  0.0459380302822439  0.7107238790768307   F   F   F
  0.3957572441421888  0.0601193588643696  0.8067245552422406   F   F   F
  0.4203313303215026  0.1357461564993088  0.6457365099455217   F   F   F
  0.3947218619540038  0.0070780844375733  0.6234873845298381   F   F   F
  0.3241656436491525  0.0367717422212266  0.9701003441002953   F   F   F
  0.3186008887036493  0.9529147150279016  0.8130429203321725   F   F   F
  0.2643372701951847  0.0732401747813682  0.8018421497834254   F   F   F
  0.2987884821977644  0.1208857399092196  0.1174485659967104   F   F   F
  0.1996624383617913  0.0559221072766078  0.0262646199825198   F   F   F
  0.2829857494736672  0.9896514337710656  0.1444789239130131   F   F   F
  0.1101451934574911  0.1342185701727203  0.1125788788334958   F   F   F
  0.0766821382792742  0.0607397056784649  0.9545285777443269   F   F   F
  0.1341757969107320  0.0767361557975477  0.7777333462252187   F   F   F
  0.0957225671603581  0.9552430329587906  0.8340378269086486   F   F   F
  0.2108562384026129  0.1444512307627122  0.6571570956784498   F   F   F
  0.5066922641105052  0.8708583257098326  0.7185670522116894   F   F   F
  0.3895103312258854  0.8388316637706552  0.8192688351857811   F   F   F
  0.4397979933618075  0.7453231177110453  0.6760039468161807   F   F   F
  0.3084140275674514  0.8668745635184294  0.9652755870968122   F   F   F
  0.2606889080070189  0.8350982466192889  0.7827207395679849   F   F   F
  0.2715568346944366  0.7510153456538546  0.0423512847739644   F   F   F
  0.1864217660726482  0.8534821360802809  0.0312320085804174   F   F   F
  0.1066504934866828  0.7505016767214414  0.0722545086923532   F   F   F
  0.0690569129806278  0.8476315228249121  0.9465820281133901   F   F   F
  0.1309689074847995  0.8354583802161599  0.7701124185163835   F   F   F
  0.2004271564454143  0.7506799105401285  0.6599256993183715   F   F   F
  0.9891519651407137  0.9556147812078777  0.2114890338323718   F   F   F
  0.4916141412322617  0.5494480625341893  0.2841790006247464   F   F   F
  0.0089251470423690  0.4511015968307817  0.7835492835017988   F   F   F
  0.4894981686010524  0.9500147821994460  0.2876273251497565   F   F   F
  0.0074970619388353  0.0489261990894718  0.7856312393666727   F   F   F
  0.5087617725659399  0.4545266948815936  0.7120001691839732   F   F   F
  0.9924140234068588  0.5470751198652621  0.2130356965022315   F   F   F
  0.1017060980532349  0.9432618797850054  0.3063267386394699   F   F   F
  0.6060789928925345  0.5616540400056351  0.1941074664055691   F   F   F
  0.8949241625157214  0.4449140561293063  0.6914504673421362   F   F   F
  0.6016435893262155  0.9472533687106903  0.1896936271588032   F   F   F
  0.8941534388113865  0.0618036091329159  0.6909186458498695   F   F   F
  0.3960574371766725  0.4461432966744638  0.8062577924719321   F   F   F
  0.1058431450010886  0.5601450924034808  0.3053306358307140   F   F   F
  0.0782961112727776  0.8692950375580537  0.1436828939589390   F   F   F
  0.5810969064357892  0.6322467421749778  0.3598879403998367   F   F   F
  0.9151825714210773  0.3721814133664765  0.8560486707619432   F   F   F
  0.5859963172502205  0.8701177363068808  0.3502823098486658   F   F   F
  0.9175780028738671  0.1334617993390523  0.8561710915907383   F   F   F
  0.4176822307010184  0.3689142576824977  0.6458576095506032   F   F   F
  0.0822263412928237  0.6301835265630231  0.1389724193976036   F   F   F
  0.1005011742333366  0.0001164143230241  0.1261531501932964   F   F   F
  0.5997311501524507  0.5002183471783752  0.3711485744101708   F   F   F
  0.9024580941421689  0.5048206604608225  0.8694123913990381   F   F   F
  0.5972449124688595  0.0025236733492733  0.3719502438267028   F   F   F
  0.8967241689304686  0.0023541910487879  0.8688015177345392   F   F   F
  0.3991102860637668  0.4989504051634839  0.6223368876881068   F   F   F
  0.1023494400674494  0.4986248149725228  0.1292056440988105   F   F   F
  0.1703892099575981  0.9648883061593025  0.4706000682321658   F   F   F
  0.6752768885558780  0.5379292818098804  0.0286049355246476   F   F   F
  0.8243095533630296  0.4666871776415888  0.5284308373122357   F   F   F
  0.6749700607263236  0.9645224104799652  0.0279671478588597   F   F   F
  0.8246513953133956  0.0376247189741434  0.5268908045320870   F   F   F
  0.3239254000631249  0.4635818599593691  0.9693738827802605   F   F   F
  0.1726695802561480  0.5365593771268351  0.4712685222085398   F   F   F
  0.1817681402136486  0.0488513059486380  0.3127354733363106   F   F   F
  0.6830753198851340  0.4543227466685238  0.1867675923259995   F   F   F
  0.8145749467525647  0.5499615992980367  0.6872915598218015   F   F   F
  0.6854141637377040  0.0494820807727976  0.1849308129565301   F   F   F
  0.8175816144185930  0.9538586331475969  0.6851664610513382   F   F   F
  0.3113338230672156  0.5480543059029870  0.8133988978351567   F   F   F
  0.1827440729941543  0.4522596405273660  0.3138203785170788   F   F   F
  0.2322357736348906  0.9270719208803442  0.3032469920554632   F   F   F
  0.7369868278020064  0.5753539889160066  0.1939126576798458   F   F   F
  0.7644463331800324  0.4278216675988844  0.6956447461792195   F   F   F
  0.7315557172406457  0.9260375781121013  0.1984929837551448   F   F   F
  0.7628012742595587  0.0742203550890252  0.6930303393614921   F   F   F
  0.2664478323419601  0.4242955649806603  0.7998193031142264   F   F   F
  0.2369246825027531  0.5726027583684399  0.3062019903825544   F   F   F
  0.2028417802334133  0.8793244586795907  0.6138043100064934   F   F   F
  0.7035031736706827  0.6236131324210916  0.8841657538058527   F   F   F
  0.7999054013948594  0.3806967721369006  0.3824929450781127   F   F   F
  0.6985132328201473  0.8811815879091114  0.8787491402696830   F   F   F
  0.7978004346313412  0.1226782989406132  0.3810021909403360   F   F   F
  0.2990705384410361  0.3793615214590602  0.1168907802988102   F   F   F
  0.2022357713644709  0.6213867190230573  0.6167194327994636   F   F   F
  0.2956007309176485  0.9541161131232911  0.5226970418208907   F   F   F
  0.8001907232722232  0.5538618136488225  0.9707090349746750   F   F   F
  0.7005694776390357  0.4467394748378339  0.4704174504161998   F   F   F
  0.7986098960248569  0.9449412817083314  0.9687247295625241   F   F   F
  0.7002263288501567  0.0540905913249432  0.4687040310707786   F   F   F
  0.1996982800868352  0.4431625937407233  0.0248841799705986   F   F   F
  0.2974094164837666  0.5513083548961220  0.5249628166680864   F   F   F
  0.2085904244262409  0.0096262787583186  0.6483869131448330   F   F   F
  0.7133438945500856  0.4922558700810882  0.8520826778051003   F   F   F
  0.7851242902483833  0.5113877044309305  0.3520932593950121   F   F   F
  0.7141702306424023  0.0125442199144388  0.8532452659152767   F   F   F
  0.7866362844479653  0.9916899982189591  0.3506269694885802   F   F   F
  0.2819210461374269  0.5103853708560706  0.1436203487968157   F   F   F
  0.2122926948220538  0.4901148526211472  0.6468219118268124   F   F   F
  0.3796337212521834  0.8733550372640195  0.6174758479579054   F   F   F
  0.8895187689131205  0.6372896347656365  0.8923204044405466   F   F   F
  0.6106492475823586  0.3667489633003171  0.3881263423463039   F   F   F
  0.8913683310282892  0.8685780237770402  0.8854169355871448   F   F   F
  0.6111589172654348  0.1355620926854542  0.3872313533223348   F   F   F
  0.1085813259556119  0.3652420317661296  0.1083087023101967   F   F   F
  0.3856587514422642  0.6318572545650198  0.6091739040844928   F   F   F
  0.4185441552468490  0.9424650691631342  0.4552917992555052   F   F   F
  0.9215173222617778  0.5598354475617313  0.0467022489415854   F   F   F
  0.5790199981871282  0.4410705819990213  0.5454911224539032   F   F   F
  0.9211334520168322  0.9443483674383302  0.0421672353858327   F   F   F
  0.5796240398635391  0.0629751615037435  0.5464684152602359   F   F   F
  0.0764947956397961  0.4434701002425285  0.9541872995546967   F   F   F
  0.4183921037013079  0.5598638951274708  0.4487786192902021   F   F   F
  0.3626019656654904  0.9291631590134344  0.2757930789935301   F   F   F
  0.8663461621305188  0.5744221522689230  0.2262923421372705   F   F   F
  0.6348016151992866  0.4267967487524231  0.7249953244408900   F   F   F
  0.8622143379768090  0.9286809882054428  0.2178651056000191   F   F   F
  0.6334073575460337  0.0778479942761692  0.7277039452686722   F   F   F
  0.1360927419363094  0.4276778753756787  0.7791962780236688   F   F   F
  0.3654217055886591  0.5738917857178194  0.2665006975980901   F   F   F
  0.4054626650340296  0.0483000408574199  0.3330310591537611   F   F   F
  0.9040639900332081  0.4535266597956138  0.1665908271904470   F   F   F
  0.5982885791644748  0.5475551863582453  0.6636779294020556   F   F   F
  0.9023084795412473  0.0499906157188903  0.1629750469171540   F   F   F
  0.6023033606403132  0.9566875187194128  0.6640417149052098   F   F   F
  0.0928823343760499  0.5485059182108714  0.8314374296217650   F   F   F
  0.4038292969404225  0.4539716042602961  0.3276107742388703   F   F   F
  0.2882670981975508  0.8561746632302274  0.1598385870477443   F   F   F
  0.7890283719149309  0.6455033240201900  0.3414695182758223   F   F   F
  0.7122918905972924  0.3578587662494854  0.8427978922318573   F   F   F
  0.7906859220083504  0.8574890366844556  0.3414238788681416   F   F   F
  0.7139543872521088  0.1464878469941624  0.8408299497539247   F   F   F
  0.2079563028925620  0.3557380090928461  0.6568812051287054   F   F   F
  0.2841271665458294  0.6440774851867630  0.1562038632547527   F   F   F
  0.9981643856141460  0.1351007023379935  0.2184771603732685   F   F   F
  0.4983634999980993  0.3653724279119572  0.2824089890166519   F   F   F
  0.9984148583567389  0.6363433815669239  0.7785924615359008   F   F   F
  0.4987316914787669  0.1368465819066245  0.2812674980048584   F   F   F
  0.0037701781408757  0.8657555707015234  0.7791934036117993   F   F   F
  0.4979459017535106  0.6272920583850734  0.7147190506023477   F   F   F
  0.9981865115296458  0.3653399951283234  0.2183856206816301   F   F   F
  0.1112445650452401  0.1620592242962218  0.3081595900913001   F   F   F
  0.6111858097846294  0.3416036816781371  0.1918430656830097   F   F   F
  0.8828330163321638  0.6643474154153353  0.6965902660400616   F   F   F
  0.6117419504699697  0.1611795886928178  0.1910416905316268   F   F   F
  0.8920296843192759  0.8425119967308348  0.6887140438574590   F   F   F
  0.3867484591726580  0.6583877645981673  0.8050332913906146   F   F   F
  0.1117833330501270  0.3394224697144992  0.3050913504741359   F   F   F
  0.0610376281662397  0.2500752340352861  0.1771916920448078   F   F   F
  0.5631034461501940  0.2510983746288744  0.3207173339296006   F   F   F
  0.9380101911245760  0.7522928543525040  0.8213866340897340   F   F   F
  0.1889302055702302  0.1355088590773903  0.4630920293893368   F   F   F
  0.6874290794440228  0.3672058185933196  0.0365236345031974   F   F   F
  0.8119252687060268  0.6362366279110887  0.5359251305141868   F   F   F
  0.6878562447635943  0.1362834070759291  0.0345908714616456   F   F   F
  0.8127085879586318  0.8664118113121830  0.5360591372149983   F   F   F
  0.3119137106393879  0.6369725996429594  0.9626606009652718   F   F   F
  0.1871650083020597  0.3641413579786246  0.4624247101953429   F   F   F
  0.2416847420671289  0.1653634742360595  0.2860269454069453   F   F   F
  0.7416141127953892  0.3374475840783830  0.2134741916867924   F   F   F
  0.7509852949928302  0.6651982442208180  0.7069557875426895   F   F   F
  0.7423631716694672  0.1673767934011750  0.2105560395220323   F   F   F
  0.7636025344231143  0.8350960503794767  0.7172211417031207   F   F   F
  0.2552466228065242  0.6664527310244850  0.7885994806527847   F   F   F
  0.2422546468126612  0.3356161866650424  0.2862639769658983   F   F   F
  0.2295012118999153  0.2502803552901227  0.5418899115656473   F   F   F
  0.7276063746067152  0.2518961526757337  0.9584428091402941   F   F   F
  0.7735782095418884  0.7515012010959552  0.4566043209120281   F   F   F
  0.3124053671360940  0.1469441854667011  0.5290683691832641   F   F   F
  0.8111379361874143  0.3544024007568396  0.9761585702586686   F   F   F
  0.6887747961132575  0.6495967865395613  0.4721168739411681   F   F   F
  0.8119958483118594  0.1498071713138884  0.9749776052603849   F   F   F
  0.6898655160922331  0.8540200996946083  0.4712900303229830   F   F   F
  0.1868214971442015  0.6496992305837921  0.0199674079336560   F   F   F
  0.3102603174022533  0.3555484818652346  0.5296886790594897   F   F   F
  0.3894878633065417  0.2519929981514650  0.5698452556359399   F   F   F
  0.8904254914602561  0.2524821904026524  0.9252752271913138   F   F   F
  0.6086645496305749  0.7521614185854872  0.4280472219271374   F   F   F
  0.4312544195717294  0.1549096611122422  0.4478580182832275   F   F   F
  0.9314912552517711  0.3475957489327755  0.0514776754310020   F   F   F
  0.5705907049800061  0.6568745049385285  0.5560000266965233   F   F   F
  0.9317176344923226  0.1576030220874500  0.0522269198339629   F   F   F
  0.5693375817217969  0.8530220067500309  0.5469665307794500   F   F   F
  0.0667667807406858  0.6561857375012039  0.9436180056070143   F   F   F
  0.4293199530199772  0.3503108006146363  0.4483024534807640   F   F   F
  0.3719425179871862  0.1684182067808564  0.2692732424264577   F   F   F
  0.8716794446402076  0.3327583758522508  0.2295534351821757   F   F   F
  0.6216823509139786  0.6672434975100430  0.7410025753285936   F   F   F
  0.8723222509779092  0.1702696384736981  0.2309883359218432   F   F   F
  0.6332069183434257  0.8336489493230985  0.7188029361551145   F   F   F
  0.1252076429068651  0.6683396633098795  0.7642016102847720   F   F   F
  0.3722249007108971  0.3320208987659328  0.2688965941271846   F   F   F
  0.2988078228860758  0.2502096533356806  0.1604229270466178   F   F   F
  0.7980470839764919  0.2517161635724179  0.3386106627755794   F   F   F
  0.6997010335983802  0.7517969931674671  0.8370268562543544   F   F   F
  0.4302336516846310  0.0616669846514810  0.6953913883001235   F   F   F
  0.3258163221628934  0.0315151785682772  0.8484142406408921   F   F   F
  0.2758543365317010  0.0510544074927992  0.0656108009422454   F   F   F
  0.1218645416077919  0.0628605185557163  0.0557473283440046   F   F   F
  0.0783285844195163  0.0350700378761957  0.8381621255226506   F   F   F
  0.2045655284647410  0.0751067513423820  0.7202885006908843   F   F   F
  0.3160736367272818  0.8751303272852340  0.8449125675324822   F   F   F
  0.2625934540655166  0.8311252040898012  0.0509607914793548   F   F   F
  0.1097955619638427  0.8300797002472251  0.0484488207768550   F   F   F
  0.0751814417916137  0.8764093237479145  0.8322602738767628   F   F   F
  0.1983721489066923  0.8263269176825361  0.7053689555929878   F   F   F
  0.0672447658342250  0.9423074330316652  0.1958165055161771   F   F   F
  0.5697591932892365  0.5608627780146804  0.3035543009145627   F   F   F
  0.9302193275359016  0.4433510570463994  0.8013368594614576   F   F   F
  0.5685872329026225  0.9426882513830535  0.3014058720647554   F   F   F
  0.9291229867697623  0.0616365928926044  0.8012380553281062   F   F   F
  0.4305421178772164  0.4423070126048714  0.6956775919297371   F   F   F
  0.0705422843477379  0.5588937135655740  0.1954354216822907   F   F   F
  0.1717781908859450  0.9713034878946161  0.3490504663233196   F   F   F
  0.6753234270124935  0.5320897323287639  0.1503007627322646   F   F   F
  0.8243822542664105  0.4725791785931008  0.6499911338467896   F   F   F
  0.6736159880737702  0.9719982670972769  0.1493996907068365   F   F   F
  0.8246427621612682  0.0316623474089610  0.6485093044655059   F   F   F
  0.3244541004933268  0.4705653651665926  0.8478256340037973   F   F   F
  0.1746412635189571  0.5300664269228434  0.3497367972083296   F   F   F
  0.2202726517780746  0.9519106304419012  0.5645460414376444   F   F   F
  0.7235063083746169  0.5519185686564754  0.9330385951674458   F   F   F
  0.7769940712186738  0.4511913910139285  0.4325341905636435   F   F   F
  0.7220897722186521  0.9507686903950159  0.9310784789908624   F   F   F
  0.7767478157673864  0.0516401272214395  0.4310783397467617   F   F   F
  0.2757438722862418  0.4489409098552599  0.0646241298339234   F   F   F
  0.2216717370854013  0.5499716439720714  0.5660652617208299   F   F   F
  0.3725553400923047  0.9423833170725189  0.5565992589930673   F   F   F
  0.8779851894790056  0.5640269238403732  0.9440742213266589   F   F   F
  0.6227013771689442  0.4387925952042195  0.4429449069797684   F   F   F
  0.8766276512913578  0.9399686099580720  0.9404445517238429   F   F   F
  0.6222608685583211  0.0636261454394855  0.4429573543772278   F   F   F
  0.1219152063337532  0.4374749157249198  0.0547272411846365   F   F   F
  0.3752124913935546  0.5607254445481189  0.5520680596900007   F   F   F
  0.4191735762532289  0.9679242759481781  0.3393399484991448   F   F   F
  0.9209511379839057  0.5333452469807511  0.1625704726594179   F   F   F
  0.5801730938054561  0.4679073450009241  0.6611943916100955   F   F   F
  0.9185911255770094  0.9700273828106063  0.1583919147461330   F   F   F
  0.5806081115048727  0.0352099124783649  0.6618827353834078   F   F   F
  0.0786078178945147  0.4681743867901389  0.8373545022520759   F   F   F
  0.4198764295954618  0.5339612552353614  0.3326576175100939   F   F   F
  0.2915663427948090  0.9269623046162110  0.2211593600035897   F   F   F
  0.7944463479173081  0.5757495905421237  0.2791047241779836   F   F   F
  0.7061461531614484  0.4272191173191686  0.7795499356768758   F   F   F
  0.7927213384844904  0.9269218481319541  0.2776864111010298   F   F   F
  0.7058505050046548  0.0766435177104370  0.7790482399607299   F   F   F
  0.2056840352187095  0.4254324981987878  0.7200122207101813   F   F   F
  0.2922309458097487  0.5740530021174663  0.2178374946241348   F   F   F
  0.0698500262396777  0.1709599090576646  0.2037462536426560   F   F   F
  0.5705256483186361  0.3305985985138946  0.2963468545632395   F   F   F
  0.9273844839752741  0.6729839538822446  0.7977106245160783   F   F   F
  0.5708875829352777  0.1716867914244418  0.2956010956169024   F   F   F
  0.9313765617358669  0.8315999527131126  0.7943066764195947   F   F   F
  0.4281130931887205  0.6677996906250598  0.6993019468066919   F   F   F
  0.0696849268411128  0.3295094581174283  0.2017565725312309   F   F   F
  0.1808881691143753  0.1280048463633321  0.3422805562872639   F   F   F
  0.6808968573352487  0.3751656439458557  0.1575273757418287   F   F   F
  0.8150975196339161  0.6290386650086432  0.6573873399888228   F   F   F
  0.6817488950510864  0.1286306504403569  0.1557783358971960   F   F   F
  0.8211283363280089  0.8746088953490982  0.6566289665703877   F   F   F
  0.3165288460034930  0.6272516819875094  0.8411050286413797   F   F   F
  0.1810215656129230  0.3728996766628043  0.3415926158986480   F   F   F
  0.2359175054262792  0.1697852356906253  0.5477985245750574   F   F   F
  0.7348832627591264  0.3323155221779075  0.9531727996416564   F   F   F
  0.7653312137905317  0.6712072952478323  0.4513024440338640   F   F   F
  0.7356236505105542  0.1715453086181142  0.9518720622173475   F   F   F
  0.7662546511651414  0.8319156184751435  0.4510700462914414   F   F   F
  0.2629284744972651  0.6703647589908215  0.0456321239955173   F   F   F
  0.2341910156153162  0.3308858373819419  0.5478662915053221   F   F   F
  0.3883087097358100  0.1721862737334163  0.5480553889211492   F   F   F
  0.8870344578219331  0.3316031431828819  0.9523885524878466   F   F   F
  0.6123053501469542  0.6729351772501815  0.4543467804264338   F   F   F
  0.8878633616188338  0.1733071848533356  0.9523193864332598   F   F   F
  0.6133303231151572  0.8320854005045675  0.4499576712880966   F   F   F
  0.1104907027049649  0.6715613188655283  0.0435507111413358   F   F   F
  0.3866189029562577  0.3316953257045938  0.5481682874902418   F   F   F
  0.4265818384200415  0.1268507018814304  0.3329944415671307   F   F   F
  0.9260211973089696  0.3750576276017199  0.1666633547556273   F   F   F
  0.5722615123668788  0.6248488084544519  0.6687092086146293   F   F   F
  0.9257739695342551  0.1280092329129801  0.1662480218031774   F   F   F
  0.5766565489973843  0.8787783917003580  0.6637250599898650   F   F   F
  0.0710671760673947  0.6269668300071984  0.8291513726767477   F   F   F
  0.4256774700350334  0.3755554953117866  0.3319365890537469   F   F   F
  0.3027999772983634  0.1750414411927892  0.2081457744516158   F   F   F
  0.8026341139637339  0.3269058040338990  0.2912954419551639   F   F   F
  0.6941536555209353  0.6760003564527466  0.7921461613622327   F   F   F
  0.8024754574603250  0.1767301225278857  0.2904985629171790   F   F   F
  0.6986439150468868  0.8267873470957880  0.7878978083891752   F   F   F
  0.1958812386257307  0.6753349326763072  0.7070941001605107   F   F   F
  0.3029917498178776  0.3254468106128243  0.2078340982992586   F   F   F
  0.4331465453203833  0.8301992767615189  0.6947203605972945   F   F   F
  0.4428937940257995  0.7625426640769177  0.9996325916446978   T   T   T
  0.4957122917589487  0.7696289849486249  0.9396600507742221   T   T   T
  0.4130543785911698  0.8162907316015549  0.8771941654960287   T   T   T
  0.5302176391846274  0.8114214750086006  0.9481863944346927   T   T   T
  0.5064693906576778  0.7334499917347159  0.8799399113397328   T   T   T
  0.4090814301185475  0.7202042845252947  0.9906441117702158   T   T   T
  0.4324556118591473  0.7980674081261866  0.0592141701478642   T   T   T
 
  0.00000000E+00  0.00000000E+00  0.00000000E+00
  0.00000000E+00  0.00000000E+00  0.00000000E+00
  0.00000000E+00  0.00000000E+00  0.00000000E+00
  0.00000000E+00  0.00000000E+00  0.00000000E+00
  0.00000000E+00  0.00000000E+00  0.00000000E+00
  0.00000000E+00  0.00000000E+00  0.00000000E+00
  0.00000000E+00  0.00000000E+00  0.00000000E+00
  0.00000000E+00  0.00000000E+00  0.00000000E+00
  0.00000000E+00  0.00000000E+00  0.00000000E+00
  0.00000000E+00  0.00000000E+00  0.00000000E+00
  0.00000000E+00  0.00000000E+00  0.00000000E+00
  0.00000000E+00  0.00000000E+00  0.00000000E+00
  0.00000000E+00  0.00000000E+00  0.00000000E+00
  0.00000000E+00  0.00000000E+00  0.00000000E+00
  0.00000000E+00  0.00000000E+00  0.00000000E+00
  0.00000000E+00  0.00000000E+00  0.00000000E+00
  0.00000000E+00  0.00000000E+00  0.00000000E+00
  0.00000000E+00  0.00000000E+00  0.00000000E+00
  0.00000000E+00  0.00000000E+00  0.00000000E+00
  0.00000000E+00  0.00000000E+00  0.00000000E+00
  0.00000000E+00  0.00000000E+00  0.00000000E+00
  0.00000000E+00  0.00000000E+00  0.00000000E+00
  0.00000000E+00  0.00000000E+00  0.00000000E+00
  0.00000000E+00  0.00000000E+00  0.00000000E+00
  0.00000000E+00  0.00000000E+00  0.00000000E+00
  0.00000000E+00  0.00000000E+00  0.00000000E+00
  0.00000000E+00  0.00000000E+00  0.00000000E+00
  0.00000000E+00  0.00000000E+00  0.00000000E+00
  0.00000000E+00  0.00000000E+00  0.00000000E+00
  0.00000000E+00  0.00000000E+00  0.00000000E+00
  0.00000000E+00  0.00000000E+00  0.00000000E+00
  0.00000000E+00  0.00000000E+00  0.00000000E+00
  0.00000000E+00  0.00000000E+00  0.00000000E+00
  0.00000000E+00  0.00000000E+00  0.00000000E+00
  0.00000000E+00  0.00000000E+00  0.00000000E+00
  0.00000000E+00  0.00000000E+00  0.00000000E+00
  0.00000000E+00  0.00000000E+00  0.00000000E+00
  0.00000000E+00  0.00000000E+00  0.00000000E+00
  0.00000000E+00  0.00000000E+00  0.00000000E+00
  0.00000000E+00  0.00000000E+00  0.00000000E+00
  0.00000000E+00  0.00000000E+00  0.00000000E+00
  0.00000000E+00  0.00000000E+00  0.00000000E+00
  0.00000000E+00  0.00000000E+00  0.00000000E+00
  0.00000000E+00  0.00000000E+00  0.00000000E+00
  0.00000000E+00  0.00000000E+00  0.00000000E+00
  0.00000000E+00  0.00000000E+00  0.00000000E+00
  0.00000000E+00  0.00000000E+00  0.00000000E+00
  0.00000000E+00  0.00000000E+00  0.00000000E+00
  0.00000000E+00  0.00000000E+00  0.00000000E+00
  0.00000000E+00  0.00000000E+00  0.00000000E+00
  0.00000000E+00  0.00000000E+00  0.00000000E+00
  0.00000000E+00  0.00000000E+00  0.00000000E+00
  0.00000000E+00  0.00000000E+00  0.00000000E+00
  0.00000000E+00  0.00000000E+00  0.00000000E+00
  0.00000000E+00  0.00000000E+00  0.00000000E+00
  0.00000000E+00  0.00000000E+00  0.00000000E+00
  0.00000000E+00  0.00000000E+00  0.00000000E+00
  0.00000000E+00  0.00000000E+00  0.00000000E+00
  0.00000000E+00  0.00000000E+00  0.00000000E+00
  0.00000000E+00  0.00000000E+00  0.00000000E+00
  0.00000000E+00  0.00000000E+00  0.00000000E+00
  0.00000000E+00  0.00000000E+00  0.00000000E+00
  0.00000000E+00  0.00000000E+00  0.00000000E+00
  0.00000000E+00  0.00000000E+00  0.00000000E+00
  0.00000000E+00  0.00000000E+00  0.00000000E+00
  0.00000000E+00  0.00000000E+00  0.00000000E+00
  0.00000000E+00  0.00000000E+00  0.00000000E+00
  0.00000000E+00  0.00000000E+00  0.00000000E+00
  0.00000000E+00  0.00000000E+00  0.00000000E+00
  0.00000000E+00  0.00000000E+00  0.00000000E+00
  0.00000000E+00  0.00000000E+00  0.00000000E+00
  0.00000000E+00  0.00000000E+00  0.00000000E+00
  0.00000000E+00  0.00000000E+00  0.00000000E+00
  0.00000000E+00  0.00000000E+00  0.00000000E+00
  0.00000000E+00  0.00000000E+00  0.00000000E+00
  0.00000000E+00  0.00000000E+00  0.00000000E+00
  0.00000000E+00  0.00000000E+00  0.00000000E+00
  0.00000000E+00  0.00000000E+00  0.00000000E+00
  0.00000000E+00  0.00000000E+00  0.00000000E+00
  0.00000000E+00  0.00000000E+00  0.00000000E+00
  0.00000000E+00  0.00000000E+00  0.00000000E+00
  0.00000000E+00  0.00000000E+00  0.00000000E+00
  0.00000000E+00  0.00000000E+00  0.00000000E+00
  0.00000000E+00  0.00000000E+00  0.00000000E+00
  0.00000000E+00  0.00000000E+00  0.00000000E+00
  0.00000000E+00  0.00000000E+00  0.00000000E+00
  0.00000000E+00  0.00000000E+00  0.00000000E+00
  0.00000000E+00  0.00000000E+00  0.00000000E+00
  0.00000000E+00  0.00000000E+00  0.00000000E+00
  0.00000000E+00  0.00000000E+00  0.00000000E+00
  0.00000000E+00  0.00000000E+00  0.00000000E+00
  0.00000000E+00  0.00000000E+00  0.00000000E+00
  0.00000000E+00  0.00000000E+00  0.00000000E+00
  0.00000000E+00  0.00000000E+00  0.00000000E+00
  0.00000000E+00  0.00000000E+00  0.00000000E+00
  0.00000000E+00  0.00000000E+00  0.00000000E+00
  0.00000000E+00  0.00000000E+00  0.00000000E+00
  0.00000000E+00  0.00000000E+00  0.00000000E+00
  0.00000000E+00  0.00000000E+00  0.00000000E+00
  0.00000000E+00  0.00000000E+00  0.00000000E+00
  0.00000000E+00  0.00000000E+00  0.00000000E+00
  0.00000000E+00  0.00000000E+00  0.00000000E+00
  0.00000000E+00  0.00000000E+00  0.00000000E+00
  0.00000000E+00  0.00000000E+00  0.00000000E+00
  0.00000000E+00  0.00000000E+00  0.00000000E+00
  0.00000000E+00  0.00000000E+00  0.00000000E+00
  0.00000000E+00  0.00000000E+00  0.00000000E+00
  0.00000000E+00  0.00000000E+00  0.00000000E+00
  0.00000000E+00  0.00000000E+00  0.00000000E+00
  0.00000000E+00  0.00000000E+00  0.00000000E+00
  0.00000000E+00  0.00000000E+00  0.00000000E+00
  0.00000000E+00  0.00000000E+00  0.00000000E+00
  0.00000000E+00  0.00000000E+00  0.00000000E+00
  0.00000000E+00  0.00000000E+00  0.00000000E+00
  0.00000000E+00  0.00000000E+00  0.00000000E+00
  0.00000000E+00  0.00000000E+00  0.00000000E+00
  0.00000000E+00  0.00000000E+00  0.00000000E+00
  0.00000000E+00  0.00000000E+00  0.00000000E+00
  0.00000000E+00  0.00000000E+00  0.00000000E+00
  0.00000000E+00  0.00000000E+00  0.00000000E+00
  0.00000000E+00  0.00000000E+00  0.00000000E+00
  0.00000000E+00  0.00000000E+00  0.00000000E+00
  0.00000000E+00  0.00000000E+00  0.00000000E+00
  0.00000000E+00  0.00000000E+00  0.00000000E+00
  0.00000000E+00  0.00000000E+00  0.00000000E+00
  0.00000000E+00  0.00000000E+00  0.00000000E+00
  0.00000000E+00  0.00000000E+00  0.00000000E+00
  0.00000000E+00  0.00000000E+00  0.00000000E+00
  0.00000000E+00  0.00000000E+00  0.00000000E+00
  0.00000000E+00  0.00000000E+00  0.00000000E+00
  0.00000000E+00  0.00000000E+00  0.00000000E+00
  0.00000000E+00  0.00000000E+00  0.00000000E+00
  0.00000000E+00  0.00000000E+00  0.00000000E+00
  0.00000000E+00  0.00000000E+00  0.00000000E+00
  0.00000000E+00  0.00000000E+00  0.00000000E+00
  0.00000000E+00  0.00000000E+00  0.00000000E+00
  0.00000000E+00  0.00000000E+00  0.00000000E+00
  0.00000000E+00  0.00000000E+00  0.00000000E+00
  0.00000000E+00  0.00000000E+00  0.00000000E+00
  0.00000000E+00  0.00000000E+00  0.00000000E+00
  0.00000000E+00  0.00000000E+00  0.00000000E+00
  0.00000000E+00  0.00000000E+00  0.00000000E+00
  0.00000000E+00  0.00000000E+00  0.00000000E+00
  0.00000000E+00  0.00000000E+00  0.00000000E+00
  0.00000000E+00  0.00000000E+00  0.00000000E+00
  0.00000000E+00  0.00000000E+00  0.00000000E+00
  0.00000000E+00  0.00000000E+00  0.00000000E+00
  0.00000000E+00  0.00000000E+00  0.00000000E+00
  0.00000000E+00  0.00000000E+00  0.00000000E+00
  0.00000000E+00  0.00000000E+00  0.00000000E+00
  0.00000000E+00  0.00000000E+00  0.00000000E+00
  0.00000000E+00  0.00000000E+00  0.00000000E+00
  0.00000000E+00  0.00000000E+00  0.00000000E+00
  0.00000000E+00  0.00000000E+00  0.00000000E+00
  0.00000000E+00  0.00000000E+00  0.00000000E+00
  0.00000000E+00  0.00000000E+00  0.00000000E+00
  0.00000000E+00  0.00000000E+00  0.00000000E+00
  0.00000000E+00  0.00000000E+00  0.00000000E+00
  0.00000000E+00  0.00000000E+00  0.00000000E+00
  0.00000000E+00  0.00000000E+00  0.00000000E+00
  0.00000000E+00  0.00000000E+00  0.00000000E+00
  0.00000000E+00  0.00000000E+00  0.00000000E+00
  0.00000000E+00  0.00000000E+00  0.00000000E+00
  0.00000000E+00  0.00000000E+00  0.00000000E+00
  0.00000000E+00  0.00000000E+00  0.00000000E+00