 C  H                                   
   1.00000000000000     
    20.2399997711181641    0.0000000000000000    0.0000000000000000
     0.0000000000000010   19.9300003051757813    0.0000000000000000
     0.0000000000000010    0.0000000000000010   13.2899999618530273
   C    H 
     7    12
Selective dynamics
Direct
  0.4759742133578513  0.5826529958861570  0.6926170902529378   T   T   T
  0.4702335551833201  0.5160592396759967  0.6652753129012225   T   T   T
  0.5242319817388008  0.4767554342751481  0.6323405058357636   T   T   T
  0.5871290391152826  0.5041937250643400  0.6296320610022832   T   T   T
  0.5102059361269653  0.4092224243678828  0.5855340516050092   T   T   T
  0.5204936912305484  0.6294329226591486  0.5499460725389866   T   T   T
  0.5789233575104191  0.5959093117769143  0.5298123100571672   T   T   T
  0.4732811182355761  0.4122978279436609  0.5246520502294345   T   T   T
  0.4899776573251060  0.3749033329688984  0.6429181546245388   T   T   T
  0.5554013004910487  0.3861513132855166  0.5553372633326603   T   T   T
  0.6021778346921707  0.5415262263285783  0.6848984251392380   T   T   T
  0.6272303213787893  0.4765653229703588  0.5933539153695691   T   T   T
  0.4316284534295036  0.6122752091043182  0.7075649450729884   T   T   T
  0.5213802565058359  0.6019709847812607  0.7258171777730027   T   T   T
  0.4205984392059463  0.4956444037905854  0.6531657191920530   T   T   T
  0.5209513698648962  0.6766974186316475  0.5913146983216748   T   T   T
  0.6253611187757713  0.6153920971654330  0.5597977955618703   T   T   T
  0.5833428159493508  0.5632481985355469  0.4644129419076677   T   T   T
  0.4767035363154334  0.6198981709967484  0.5032424421112044   T   T   T
 
  0.00000000E+00  0.00000000E+00  0.00000000E+00
  0.00000000E+00  0.00000000E+00  0.00000000E+00
  0.00000000E+00  0.00000000E+00  0.00000000E+00
  0.00000000E+00  0.00000000E+00  0.00000000E+00
  0.00000000E+00  0.00000000E+00  0.00000000E+00
  0.00000000E+00  0.00000000E+00  0.00000000E+00
  0.00000000E+00  0.00000000E+00  0.00000000E+00
  0.00000000E+00  0.00000000E+00  0.00000000E+00
  0.00000000E+00  0.00000000E+00  0.00000000E+00
  0.00000000E+00  0.00000000E+00  0.00000000E+00
  0.00000000E+00  0.00000000E+00  0.00000000E+00
  0.00000000E+00  0.00000000E+00  0.00000000E+00
  0.00000000E+00  0.00000000E+00  0.00000000E+00
  0.00000000E+00  0.00000000E+00  0.00000000E+00
  0.00000000E+00  0.00000000E+00  0.00000000E+00
  0.00000000E+00  0.00000000E+00  0.00000000E+00
  0.00000000E+00  0.00000000E+00  0.00000000E+00
  0.00000000E+00  0.00000000E+00  0.00000000E+00
  0.00000000E+00  0.00000000E+00  0.00000000E+00
