 C  H                                   
   1.00000000000000     
    20.0000000000000000    0.0000000000000000    0.0000000000000000
     0.0000000000000000   20.0000000000000000    0.0000000000000000
     0.0000000000000000    0.0000000000000000   20.0000000000000000
   C    H 
     2     4
Direct
  0.0993902557249058  0.0969583874052375  0.0949847274846860
  0.1660600163181059  0.0986786439801435  0.0949944344049598
  0.0698759754653082  0.1301413371241722  0.1268712668798813
  0.0716175446448091  0.0623166741724859  0.0631048165751196
  0.1938216061840876  0.1333195510985306  0.1268775412959187
  0.1955640568902908  0.0654964460313252  0.0623574702236134
 
  0.00000000E+00  0.00000000E+00  0.00000000E+00
  0.00000000E+00  0.00000000E+00  0.00000000E+00
  0.00000000E+00  0.00000000E+00  0.00000000E+00
  0.00000000E+00  0.00000000E+00  0.00000000E+00
  0.00000000E+00  0.00000000E+00  0.00000000E+00
  0.00000000E+00  0.00000000E+00  0.00000000E+00
