 O Si Al  H  C  H  C  H  C  H  C  H  C  
   1.00000000000000     
    20.2399997711181641    0.0000000000000000    0.0000000000000000
     0.0000000000000010   19.9300003051757813    0.0000000000000000
     0.0000000000000010    0.0000000000000010   13.2899999618530273
   O    Si   Al   H    C    H    C    H    C    H    C    H    C    H    C    H 
   192    95     1     2     1     1     1     1     1     2     2     1     1     1     1     5
Selective dynamics
Direct
  0.5089564399049067  0.0466713967295789  0.7091028662964121   F   F   F
  0.3966776046454257  0.0608584759680824  0.8053827448121069   F   F   F
  0.4209585714698107  0.1355212803412442  0.6429620868796633   F   F   F
  0.3959113020811458  0.0061614327629229  0.6235550826796015   F   F   F
  0.3238917202700478  0.0395979287935688  0.9677585020118755   F   F   F
  0.3161813621522853  0.9559849916293999  0.8106113105692785   F   F   F
  0.2655256670537156  0.0774193942070838  0.7985017603231341   F   F   F
  0.2979533511952397  0.1238626741085724  0.1142328028800392   F   F   F
  0.1993884970698403  0.0568049089718130  0.0249473377160996   F   F   F
  0.2844772403579157  0.9926927593562525  0.1434506732281307   F   F   F
  0.1105654157316209  0.1367036930443817  0.1098032947890388   F   F   F
  0.0762658506419243  0.0618357202070356  0.9533488479574217   F   F   F
  0.1347860917451769  0.0784276727003999  0.7780487749132803   F   F   F
  0.0954737714797957  0.9566145740976069  0.8321161255720426   F   F   F
  0.2092739195350504  0.1470414813607022  0.6552967189107832   F   F   F
  0.5038390737415810  0.8763162870975520  0.7060267064608468   F   F   F
  0.3907865087497129  0.8440713511749749  0.8153489899195989   F   F   F
  0.4399263890444374  0.7474024958013530  0.6731405777117487   F   F   F
  0.3088494090120548  0.8707586963024454  0.9629926436017087   F   F   F
  0.2625541241287337  0.8362775987412050  0.7805613378002860   F   F   F
  0.2743497969313751  0.7534362232774257  0.0398303425439934   F   F   F
  0.1872509405016487  0.8540324006618789  0.0261346494658383   F   F   F
  0.1069089864621660  0.7522099641256474  0.0706938635510284   F   F   F
  0.0693049645821517  0.8483039409708510  0.9433006774809130   F   F   F
  0.1323740157710631  0.8376495629807152  0.7674943851984182   F   F   F
  0.2019161706843988  0.7524919991005703  0.6580866949577384   F   F   F
  0.9896050517560653  0.9553353184418327  0.2110715188558103   F   F   F
  0.4917478124722763  0.5526899662030118  0.2829814934174522   F   F   F
  0.0097418468818233  0.4539961576722575  0.7818332429472790   F   F   F
  0.4902974542474752  0.9504378718921416  0.2867755649936825   F   F   F
  0.0078180109673269  0.0504813964409365  0.7835778363593562   F   F   F
  0.5092741395247558  0.4567148248235426  0.7091353849410353   F   F   F
  0.9925667935077769  0.5499918350601121  0.2109947248711563   F   F   F
  0.1028677558882691  0.9439677535932347  0.3043641846075431   F   F   F
  0.6054309634395665  0.5616386971421790  0.1905338720719527   F   F   F
  0.8956861183726232  0.4448452608766544  0.6893140835722846   F   F   F
  0.6021329566822970  0.9509237759898497  0.1887124144700110   F   F   F
  0.8944075636390210  0.0642048383392861  0.6887998221958185   F   F   F
  0.3969404175899811  0.4464750411047831  0.8050568631517763   F   F   F
  0.1053458477066016  0.5604516723724871  0.3051908178778717   F   F   F
  0.0799242041570523  0.8716120535397636  0.1399220529859093   F   F   F
  0.5839924687905764  0.6333442377650940  0.3560658613330361   F   F   F
  0.9177171222169349  0.3731414106896835  0.8546647425259621   F   F   F
  0.5885617875450109  0.8722257699840554  0.3472650544597471   F   F   F
  0.9181539427094378  0.1349733448480634  0.8545539100289616   F   F   F
  0.4190288672442648  0.3697296761215512  0.6441079025171490   F   F   F
  0.0842953296854461  0.6323666533726495  0.1399265397781448   F   F   F
  0.0996581028352992  0.0031006212476399  0.1262360834071075   F   F   F
  0.5992925402952096  0.5008850128513558  0.3684766206604522   F   F   F
  0.9015944058227774  0.5053146386729424  0.8665022920701588   F   F   F
  0.5965660851467405  0.0047563648028799  0.3723360593423735   F   F   F
  0.8964797407325378  0.0038094582905686  0.8655404781084073   F   F   F
  0.3982969069332327  0.4994906311163803  0.6215688354196516   F   F   F
  0.1022332187713175  0.5007468339450725  0.1273018251398099   F   F   F
  0.1701116808021226  0.9671136858806832  0.4694009606193745   F   F   F
  0.6761244886266411  0.5402007944019758  0.0263572096700670   F   F   F
  0.8254053561810366  0.4684788058857734  0.5261021759241373   F   F   F
  0.6761360727582684  0.9651461622461142  0.0269463707083730   F   F   F
  0.8257252513720417  0.0394469146070904  0.5244022226762013   F   F   F
  0.3254710580031670  0.4654104843007261  0.9686059144705723   F   F   F
  0.1738056721849759  0.5387342161151878  0.4698367622328519   F   F   F
  0.1812664535583508  0.0508977430477842  0.3108695213003259   F   F   F
  0.6846555181501515  0.4559059540314934  0.1839025553878955   F   F   F
  0.8171168641196829  0.5513332080818500  0.6855367202346869   F   F   F
  0.6879636552748565  0.0511465708995331  0.1823465534606967   F   F   F
  0.8192591537820846  0.9552882123693180  0.6824115162591795   F   F   F
  0.3138139828230706  0.5498647966802110  0.8121628082268941   F   F   F
  0.1848615087173329  0.4545218630775381  0.3123897086238827   F   F   F
  0.2337309316632883  0.9302283082704008  0.3029862163388373   F   F   F
  0.7360062904783220  0.5777618765453809  0.1936938185857429   F   F   F
  0.7647927736520543  0.4301285383954152  0.6927284515378602   F   F   F
  0.7311031487084989  0.9265128404382068  0.1988954530976557   F   F   F
  0.7626927934593226  0.0746547392587544  0.6900953964436169   F   F   F
  0.2668914804191402  0.4267933964300923  0.7998582823626776   F   F   F
  0.2360032198867614  0.5760614264337960  0.3029306873483577   F   F   F
  0.2045595716757447  0.8815848683693375  0.6120837699954862   F   F   F
  0.7041747067256665  0.6259075989677001  0.8820444405295120   F   F   F
  0.8001682269352699  0.3819713044033861  0.3812538671384473   F   F   F
  0.7003854728423420  0.8824779430972001  0.8774856707541616   F   F   F
  0.7984934594998663  0.1236669305817770  0.3774765036751830   F   F   F
  0.2994325923391514  0.3819085973739647  0.1165950984081974   F   F   F
  0.2028608345452270  0.6229285798533510  0.6162557785048364   F   F   F
  0.2954387838083221  0.9584823711180661  0.5200044230496559   F   F   F
  0.8010569745254941  0.5564667991503498  0.9693193272012905   F   F   F
  0.7014942618280102  0.4498660994136543  0.4674781181571888   F   F   F
  0.8002094403323383  0.9458017073241010  0.9688470407128307   F   F   F
  0.7013835948113467  0.0548041263109766  0.4656850371244943   F   F   F
  0.2009252757770881  0.4466330819734665  0.0239047491933491   F   F   F
  0.2983987844316331  0.5539699403178417  0.5230042877178320   F   F   F
  0.2082975187240805  0.0120400774918963  0.6472645566328055   F   F   F
  0.7147668678940988  0.4945693406738201  0.8499463932433997   F   F   F
  0.7873649768225874  0.5125695864724236  0.3486988953519798   F   F   F
  0.7164928871129206  0.0139089179940513  0.8529920107106932   F   F   F
  0.7884941641674175  0.9922955310952304  0.3487008090584212   F   F   F
  0.2837068455301264  0.5131621351156923  0.1425493040030545   F   F   F
  0.2140051753644414  0.4915927593837637  0.6448485350171609   F   F   F
  0.3763471111363117  0.8729466971575732  0.6110648279984972   F   F   F
  0.8910323965938503  0.6381117798042197  0.8891963411377759   F   F   F
  0.6127983212048349  0.3678228570119728  0.3861175130542094   F   F   F
  0.8933250758021813  0.8700679538788165  0.8851689181240729   F   F   F
  0.6130302759904325  0.1375208440700675  0.3850882356381646   F   F   F
  0.1102954782230299  0.3676999590648080  0.1064471705073373   F   F   F
  0.3868872602674429  0.6329164272682490  0.6097027532181585   F   F   F
  0.4182842243854594  0.9444927012194455  0.4529091604773470   F   F   F
  0.9232557448387340  0.5602795638542162  0.0429209817909282   F   F   F
  0.5802723957936564  0.4417488065988664  0.5434388889973292   F   F   F
  0.9236537603179755  0.9478397802402938  0.0393362090560174   F   F   F
  0.5816834223318850  0.0670260642361882  0.5462085937618610   F   F   F
  0.0781198192585748  0.4453600024836888  0.9517435539540315   F   F   F
  0.4202924054960917  0.5610832079009569  0.4495150927954512   F   F   F
  0.3636887041406354  0.9298676417099117  0.2724269539060700   F   F   F
  0.8659753716530361  0.5765287193142967  0.2202278546940875   F   F   F
  0.6352637568347390  0.4294281066685528  0.7239358179267299   F   F   F
  0.8620433050264822  0.9303872463018692  0.2119293049732036   F   F   F
  0.6338781286195498  0.0781405110100621  0.7292614969312226   F   F   F
  0.1366664207843442  0.4287854482108102  0.7757658594899297   F   F   F
  0.3652392949171954  0.5755479177839149  0.2690967300594096   F   F   F
  0.4061710822692888  0.0494415865182845  0.3284759286672454   F   F   F
  0.9050708415616029  0.4553095360902972  0.1651460620064213   F   F   F
  0.5989848365249273  0.5494219047994093  0.6589060843218135   F   F   F
  0.9045361666430765  0.0517401679004337  0.1633466522572888   F   F   F
  0.6036063704490218  0.9583768984038272  0.6584686453984503   F   F   F
  0.0955065064839218  0.5500279099327727  0.8285715528134219   F   F   F
  0.4058743423576843  0.4555690677901438  0.3276066991670490   F   F   F
  0.2868434618513476  0.8589742769929529  0.1576707236896056   F   F   F
  0.7911427417563814  0.6468012776795362  0.3395962594022279   F   F   F
  0.7133595104527615  0.3601400831684458  0.8403999149746113   F   F   F
  0.7941913973548722  0.8580384405973831  0.3380893918899091   F   F   F
  0.7160043786038344  0.1476543367919589  0.8386807041249469   F   F   F
  0.2105032369999904  0.3572948894791281  0.6559097113436181   F   F   F
  0.2871610119073225  0.6469667270935489  0.1552934669102868   F   F   F
  0.9993483198384823  0.1382266060902779  0.2177181986047785   F   F   F
  0.5001901379736893  0.3671484685087876  0.2810934164234027   F   F   F
  0.0012133972232675  0.6382955255053417  0.7778733671641760   F   F   F
  0.5000335596832883  0.1380062976715166  0.2805231952906482   F   F   F
  0.0043831393028100  0.8665340653786089  0.7753744272750396   F   F   F
  0.5002920376217901  0.6303570220323280  0.7117372387270890   F   F   F
  0.9998390549267739  0.3679723374715351  0.2166830214166708   F   F   F
  0.1130239830848438  0.1652623973865133  0.3053906019200880   F   F   F
  0.6128977371978479  0.3430873722664529  0.1898128264176577   F   F   F
  0.8862672574241373  0.6653071017564613  0.6935509589619215   F   F   F
  0.6124134311243239  0.1617114492367975  0.1886830777913460   F   F   F
  0.8902338319557614  0.8421076018533569  0.6896610390962792   F   F   F
  0.3897020707883385  0.6598068657262104  0.8050471270085069   F   F   F
  0.1135236969080395  0.3418817248754351  0.3032946621429673   F   F   F
  0.0623686571889408  0.2528370560006152  0.1748891694228689   F   F   F
  0.5645080183505797  0.2525218323767504  0.3180419905469805   F   F   F
  0.9393372559588968  0.7534175101221905  0.8208150520064379   F   F   F
  0.1891707430544614  0.1372193129984254  0.4613601535302010   F   F   F
  0.6888297840718351  0.3685238435178633  0.0341449309593713   F   F   F
  0.8140319930588547  0.6373113966388573  0.5341162558267385   F   F   F
  0.6886385255606911  0.1383444164924015  0.0321145125576834   F   F   F
  0.8153858898035651  0.8679845552931695  0.5328810459599822   F   F   F
  0.3132406847409896  0.6381684489833646  0.9614881019710353   F   F   F
  0.1882295960561180  0.3668413600894098  0.4617737745143273   F   F   F
  0.2437647204397706  0.1665018904730715  0.2857568768852659   F   F   F
  0.7435378294297266  0.3391640784541892  0.2107029388939523   F   F   F
  0.7546823251194681  0.6671011067997128  0.7064014012886020   F   F   F
  0.7430029514878953  0.1698264974567110  0.2080608851469705   F   F   F
  0.7598666580252313  0.8386927614077990  0.7095284574982870   F   F   F
  0.2584660361335835  0.6685093056238287  0.7859496330830922   F   F   F
  0.2442341835376425  0.3376325494407055  0.2869428464925008   F   F   F
  0.2299398240179400  0.2522037273166831  0.5391924573312110   F   F   F
  0.7291801591651250  0.2536442846277112  0.9549477821450409   F   F   F
  0.7764119449817173  0.7526454238707814  0.4549013375099165   F   F   F
  0.3121885802477138  0.1482351811519962  0.5293016879585366   F   F   F
  0.8125463868615981  0.3563279413831708  0.9730960677478606   F   F   F
  0.6909718691473046  0.6510987013450205  0.4702751439579842   F   F   F
  0.8131507518373837  0.1514470662432501  0.9744622200673021   F   F   F
  0.6929330154819553  0.8553935180365642  0.4665319597466890   F   F   F
  0.1889491233929093  0.6523386152667783  0.0209164513147684   F   F   F
  0.3118441114803900  0.3564441681481370  0.5271131109802525   F   F   F
  0.3906666727973018  0.2526360353190356  0.5684708556169014   F   F   F
  0.8917066138125307  0.2539039270626446  0.9244459161699083   F   F   F
  0.6117881017584779  0.7534412153547692  0.4220374808128753   F   F   F
  0.4303530638877717  0.1554931196633973  0.4452353904496462   F   F   F
  0.9323807929526993  0.3491103930377335  0.0505938535881754   F   F   F
  0.5722263334662401  0.6593134784131109  0.5516623703588692   F   F   F
  0.9332892565660487  0.1585638891663876  0.0504661499247021   F   F   F
  0.5731244947122391  0.8527544655599044  0.5433935626228390   F   F   F
  0.0688674310045556  0.6559888753113512  0.9440959991584990   F   F   F
  0.4309767698415925  0.3507194623623775  0.4465701478862982   F   F   F
  0.3736505677860862  0.1697924246496711  0.2645382026448786   F   F   F
  0.8735006933888130  0.3346568607762777  0.2295161198933329   F   F   F
  0.6247400202100479  0.6688555268745517  0.7353842840086529   F   F   F
  0.8730641016625924  0.1722249224316315  0.2282825369637607   F   F   F
  0.6291392367974140  0.8362096951893605  0.7229755485435305   F   F   F
  0.1281379095860800  0.6708445473405789  0.7657759772352222   F   F   F
  0.3740493973388581  0.3340968579329910  0.2666090153821656   F   F   F
  0.2993499078539870  0.2526021602497295  0.1595089989362677   F   F   F
  0.7990084468505927  0.2532170890480643  0.3367648482775820   F   F   F
  0.7007082849675541  0.7538950459943194  0.8333433079133812   F   F   F
  0.4310107604638560  0.0618086241453923  0.6938116609871869   F   F   F
  0.3256430299864448  0.0341138719004448  0.8460958453126395   F   F   F
  0.2758088048940195  0.0533943815565721  0.0635773417021355   F   F   F
  0.1216403325218991  0.0647531276078439  0.0543089013587377   F   F   F
  0.0784409785586817  0.0364415250080725  0.8368545023508176   F   F   F
  0.2045499243472264  0.0777092663583758  0.7188628433858071   F   F   F
  0.3168736481401879  0.8780043769649453  0.8426807661721867   F   F   F
  0.2638017463297899  0.8333614439415058  0.0477044887453317   F   F   F
  0.1106803866690313  0.8314635748616723  0.0449837353148723   F   F   F
  0.0756987667159308  0.8775753914363307  0.8292300563230484   F   F   F
  0.2000759190368413  0.8282376028879952  0.7033532207392170   F   F   F
  0.0679220780360410  0.9436269959302166  0.1942272825971969   F   F   F
  0.5702892672999340  0.5619992449947873  0.3008979956727273   F   F   F
  0.9312043308719495  0.4444021469761879  0.7991884187542624   F   F   F
  0.5694373841284914  0.9449558490805714  0.3006786788385227   F   F   F
  0.9294704450758644  0.0633302509927489  0.7990502808919118   F   F   F
  0.4310844559552933  0.4432595261845904  0.6941441291040746   F   F   F
  0.0709813942175330  0.5607928659763388  0.1946122185135550   F   F   F
  0.1722003209420322  0.9733591046475425  0.3478247058058770   F   F   F
  0.6756504139550614  0.5336325096682017  0.1479812325287782   F   F   F
  0.8256562528095515  0.4739062570866039  0.6477394349021637   F   F   F
  0.6747778624391998  0.9736604171234404  0.1482305148887662   F   F   F
  0.8254023269289945  0.0331828101305973  0.6459593725359625   F   F   F
  0.3258079249614028  0.4723397832291951  0.8469801362729541   F   F   F
  0.1752188375508013  0.5321871715733764  0.3483198656866549   F   F   F
  0.2204357184002816  0.9546007026548793  0.5630693751824367   F   F   F
  0.7245302430880756  0.5542577344775168  0.9309969527872966   F   F   F
  0.7781031820305273  0.4531009556820962  0.4301161049857711   F   F   F
  0.7238545827968110  0.9518386411003092  0.9304387213819112   F   F   F
  0.7779464769993965  0.0526951253005947  0.4282332227178500   F   F   F
  0.2769940141145710  0.4516499594926344  0.0638240744286520   F   F   F
  0.2227918534345505  0.5519647697929955  0.5647185293460666   F   F   F
  0.3718521885006894  0.9435251708029355  0.5538123219506588   F   F   F
  0.8788628969699133  0.5651290288716098  0.9412730518666876   F   F   F
  0.6237144533169285  0.4401877981394549  0.4406402730560259   F   F   F
  0.8781196905674378  0.9417454777878191  0.9389131797703030   F   F   F
  0.6234108853192524  0.0658830196726967  0.4418650524977323   F   F   F
  0.1230921776835459  0.4400277492238160  0.0528599951577320   F   F   F
  0.3760864691641572  0.5622345007290974  0.5519016433810506   F   F   F
  0.4196154859889774  0.9691464739121614  0.3367769493573078   F   F   F
  0.9217034460977516  0.5351233878371389  0.1593990009198052   F   F   F
  0.5808260305471151  0.4697769107921062  0.6585510624494901   F   F   F
  0.9200111600330274  0.9717607124882690  0.1563322395999194   F   F   F
  0.5816981016208942  0.0369162350434991  0.6603300157167453   F   F   F
  0.0800034804875409  0.4699588414020255  0.8348474181337622   F   F   F
  0.4207550707776377  0.5357616696832039  0.3331316232999342   F   F   F
  0.2919542094337118  0.9293185793121879  0.2192249648198654   F   F   F
  0.7951548686227738  0.5774107082890083  0.2761838753598056   F   F   F
  0.7069585140753887  0.4295895615491929  0.7773900972184222   F   F   F
  0.7939727305503510  0.9277967161075864  0.2750654396453527   F   F   F
  0.7070714793292439  0.0774826304764105  0.7780380713441986   F   F   F
  0.2070379747216151  0.4271853627131179  0.7185119723889315   F   F   F
  0.2930747244447005  0.5768141286628321  0.2171124759774372   F   F   F
  0.0710635374315132  0.1737659531450078  0.2015244443096975   F   F   F
  0.5722526446571337  0.3320805302581746  0.2943316750723000   F   F   F
  0.9297542870366655  0.6741783140157978  0.7957976285915507   F   F   F
  0.5721395230865554  0.1730503616734751  0.2935870678988906   F   F   F
  0.9320657927903184  0.8325524021032464  0.7932719780510666   F   F   F
  0.4297845576912493  0.6699693953200807  0.6985331497692826   F   F   F
  0.0713406045572569  0.3321432042978998  0.1999613541335350   F   F   F
  0.1818268780439851  0.1300232038763980  0.3404660493087803   F   F   F
  0.6825372031406545  0.3766614797512133  0.1551359342459264   F   F   F
  0.8180510634630735  0.6303722512096854  0.6555313626801507   F   F   F
  0.6829058254652551  0.1303344587360371  0.1533030085644285   F   F   F
  0.8209902167694665  0.8760398405892431  0.6539224783887576   F   F   F
  0.3191124672093224  0.6291405208757155  0.8401278355282358   F   F   F
  0.1826202814226718  0.3752584202632505  0.3407393244117642   F   F   F
  0.2357078798082313  0.1717200594046062  0.5463686602742825   F   F   F
  0.7362989236076558  0.3341253960623334  0.9503523759320345   F   F   F
  0.7676280711967962  0.6724172830857356  0.4494710763951062   F   F   F
  0.7370133718292848  0.1732400124549471  0.9497525306412484   F   F   F
  0.7693686266620077  0.8329820208819498  0.4478115403840732   F   F   F
  0.2654486853023457  0.6728730930882918  0.0445671876061411   F   F   F
  0.2355627625311314  0.3327238990199248  0.5461591432872339   F   F   F
  0.3884353596722434  0.1728349726529359  0.5464154906419623   F   F   F
  0.8885580349821325  0.3331183543370173  0.9508833730772963   F   F   F
  0.6147176492747306  0.6744424957035875  0.4504280192868961   F   F   F
  0.8890387633872550  0.1747180621095623  0.9511560610571905   F   F   F
  0.6165611420202950  0.8331236908127266  0.4456283037703344   F   F   F
  0.1123204309959434  0.6731504014133023  0.0436879934642533   F   F   F
  0.3880442139943199  0.3323859312597293  0.5463936706612458   F   F   F
  0.4272258537520699  0.1280364180602476  0.3300219441621692   F   F   F
  0.9273733436904905  0.3769636658571045  0.1656168749392322   F   F   F
  0.5740086101719797  0.6270736763016203  0.6643366106572870   F   F   F
  0.9272567810262018  0.1299575314352737  0.1650280203982319   F   F   F
  0.5762345190132478  0.8810182722961031  0.6589072980984199   F   F   F
  0.0737309270448065  0.6285338303578172  0.8287810734606111   F   F   F
  0.4274479903581891  0.3770520989800517  0.3306942938132096   F   F   F
  0.3036274110413970  0.1771073235857088  0.2058895890323953   F   F   F
  0.8039020158008512  0.3285011568009253  0.2897599150916648   F   F   F
  0.6963203881285125  0.6778452297205746  0.7890183706029106   F   F   F
  0.8032863999846569  0.1784246616919063  0.2879565099732986   F   F   F
  0.6975305925362676  0.8291423361103725  0.7853038139331900   F   F   F
  0.1980993098084980  0.6773614909742420  0.7063057178198804   F   F   F
  0.3042123521712128  0.3277610104417406  0.2070708885828267   F   F   F
  0.4312274168806738  0.8322179884381811  0.6895559857056028   F   F   F
  0.4253313726961707  0.8401671446554673  0.8718998525957744   T   T   T
  0.5872551871472496  0.6962758177610198  0.0307643523546943   T   T   T
  0.5869896279885367  0.7492021754824520  0.0522405761303446   T   T   T
  0.6258135051577867  0.7801007169166354  0.0191786134228806   T   T   T
  0.5565262082148124  0.7688054442233891  0.1401099522491975   T   T   T
  0.5513058718249368  0.7584351111252445  0.8586995664218335   T   T   T
  0.5200072541180276  0.7720983059429116  0.9224218560753172   T   T   T
  0.5685749355859784  0.8164371050398529  0.1756402384321945   T   T   T
  0.4421677470871543  0.7656441777483209  0.0818655911766868   T   T   T
  0.5037366972497352  0.8388945572003195  0.9377719566197484   T   T   T
  0.4489870060645202  0.8187834769595099  0.0977911435847076   T   T   T
  0.5283885432076261  0.8766837818366113  0.8913608894574168   T   T   T
  0.4691630536518048  0.8628835168223219  0.0243595364225300   T   T   T
  0.5058782769521599  0.9578809784251447  0.0794819354113585   T   T   T
  0.4633342767680659  0.9378837404402702  0.0374847895981532   T   T   T
  0.4625373559982222  0.9633511093286984  0.9639152566158913   T   T   T
  0.4182554658865811  0.9516393881897542  0.0785631940023492   T   T   T
  0.4885707124771841  0.7320541591603700  0.9513619444279584   T   T   T
  0.5296114154650411  0.7327277487533550  0.1863003383126056   T   T   T
  0.4273234500417401  0.8373512985886221  0.1664970478564700   T   T   T
 
  0.00000000E+00  0.00000000E+00  0.00000000E+00
  0.00000000E+00  0.00000000E+00  0.00000000E+00
  0.00000000E+00  0.00000000E+00  0.00000000E+00
  0.00000000E+00  0.00000000E+00  0.00000000E+00
  0.00000000E+00  0.00000000E+00  0.00000000E+00
  0.00000000E+00  0.00000000E+00  0.00000000E+00
  0.00000000E+00  0.00000000E+00  0.00000000E+00
  0.00000000E+00  0.00000000E+00  0.00000000E+00
  0.00000000E+00  0.00000000E+00  0.00000000E+00
  0.00000000E+00  0.00000000E+00  0.00000000E+00
  0.00000000E+00  0.00000000E+00  0.00000000E+00
  0.00000000E+00  0.00000000E+00  0.00000000E+00
  0.00000000E+00  0.00000000E+00  0.00000000E+00
  0.00000000E+00  0.00000000E+00  0.00000000E+00
  0.00000000E+00  0.00000000E+00  0.00000000E+00
  0.00000000E+00  0.00000000E+00  0.00000000E+00
  0.00000000E+00  0.00000000E+00  0.00000000E+00
  0.00000000E+00  0.00000000E+00  0.00000000E+00
  0.00000000E+00  0.00000000E+00  0.00000000E+00
  0.00000000E+00  0.00000000E+00  0.00000000E+00
  0.00000000E+00  0.00000000E+00  0.00000000E+00
  0.00000000E+00  0.00000000E+00  0.00000000E+00
  0.00000000E+00  0.00000000E+00  0.00000000E+00
  0.00000000E+00  0.00000000E+00  0.00000000E+00
  0.00000000E+00  0.00000000E+00  0.00000000E+00
  0.00000000E+00  0.00000000E+00  0.00000000E+00
  0.00000000E+00  0.00000000E+00  0.00000000E+00
  0.00000000E+00  0.00000000E+00  0.00000000E+00
  0.00000000E+00  0.00000000E+00  0.00000000E+00
  0.00000000E+00  0.00000000E+00  0.00000000E+00
  0.00000000E+00  0.00000000E+00  0.00000000E+00
  0.00000000E+00  0.00000000E+00  0.00000000E+00
  0.00000000E+00  0.00000000E+00  0.00000000E+00
  0.00000000E+00  0.00000000E+00  0.00000000E+00
  0.00000000E+00  0.00000000E+00  0.00000000E+00
  0.00000000E+00  0.00000000E+00  0.00000000E+00
  0.00000000E+00  0.00000000E+00  0.00000000E+00
  0.00000000E+00  0.00000000E+00  0.00000000E+00
  0.00000000E+00  0.00000000E+00  0.00000000E+00
  0.00000000E+00  0.00000000E+00  0.00000000E+00
  0.00000000E+00  0.00000000E+00  0.00000000E+00
  0.00000000E+00  0.00000000E+00  0.00000000E+00
  0.00000000E+00  0.00000000E+00  0.00000000E+00
  0.00000000E+00  0.00000000E+00  0.00000000E+00
  0.00000000E+00  0.00000000E+00  0.00000000E+00
  0.00000000E+00  0.00000000E+00  0.00000000E+00
  0.00000000E+00  0.00000000E+00  0.00000000E+00
  0.00000000E+00  0.00000000E+00  0.00000000E+00
  0.00000000E+00  0.00000000E+00  0.00000000E+00
  0.00000000E+00  0.00000000E+00  0.00000000E+00
  0.00000000E+00  0.00000000E+00  0.00000000E+00
  0.00000000E+00  0.00000000E+00  0.00000000E+00
  0.00000000E+00  0.00000000E+00  0.00000000E+00
  0.00000000E+00  0.00000000E+00  0.00000000E+00
  0.00000000E+00  0.00000000E+00  0.00000000E+00
  0.00000000E+00  0.00000000E+00  0.00000000E+00
  0.00000000E+00  0.00000000E+00  0.00000000E+00
  0.00000000E+00  0.00000000E+00  0.00000000E+00
  0.00000000E+00  0.00000000E+00  0.00000000E+00
  0.00000000E+00  0.00000000E+00  0.00000000E+00
  0.00000000E+00  0.00000000E+00  0.00000000E+00
  0.00000000E+00  0.00000000E+00  0.00000000E+00
  0.00000000E+00  0.00000000E+00  0.00000000E+00
  0.00000000E+00  0.00000000E+00  0.00000000E+00
  0.00000000E+00  0.00000000E+00  0.00000000E+00
  0.00000000E+00  0.00000000E+00  0.00000000E+00
  0.00000000E+00  0.00000000E+00  0.00000000E+00
  0.00000000E+00  0.00000000E+00  0.00000000E+00
  0.00000000E+00  0.00000000E+00  0.00000000E+00
  0.00000000E+00  0.00000000E+00  0.00000000E+00
  0.00000000E+00  0.00000000E+00  0.00000000E+00
  0.00000000E+00  0.00000000E+00  0.00000000E+00
  0.00000000E+00  0.00000000E+00  0.00000000E+00
  0.00000000E+00  0.00000000E+00  0.00000000E+00
  0.00000000E+00  0.00000000E+00  0.00000000E+00
  0.00000000E+00  0.00000000E+00  0.00000000E+00
  0.00000000E+00  0.00000000E+00  0.00000000E+00
  0.00000000E+00  0.00000000E+00  0.00000000E+00
  0.00000000E+00  0.00000000E+00  0.00000000E+00
  0.00000000E+00  0.00000000E+00  0.00000000E+00
  0.00000000E+00  0.00000000E+00  0.00000000E+00
  0.00000000E+00  0.00000000E+00  0.00000000E+00
  0.00000000E+00  0.00000000E+00  0.00000000E+00
  0.00000000E+00  0.00000000E+00  0.00000000E+00
  0.00000000E+00  0.00000000E+00  0.00000000E+00
  0.00000000E+00  0.00000000E+00  0.00000000E+00
  0.00000000E+00  0.00000000E+00  0.00000000E+00
  0.00000000E+00  0.00000000E+00  0.00000000E+00
  0.00000000E+00  0.00000000E+00  0.00000000E+00
  0.00000000E+00  0.00000000E+00  0.00000000E+00
  0.00000000E+00  0.00000000E+00  0.00000000E+00
  0.00000000E+00  0.00000000E+00  0.00000000E+00
  0.00000000E+00  0.00000000E+00  0.00000000E+00
  0.00000000E+00  0.00000000E+00  0.00000000E+00
  0.00000000E+00  0.00000000E+00  0.00000000E+00
  0.00000000E+00  0.00000000E+00  0.00000000E+00
  0.00000000E+00  0.00000000E+00  0.00000000E+00
  0.00000000E+00  0.00000000E+00  0.00000000E+00
  0.00000000E+00  0.00000000E+00  0.00000000E+00
  0.00000000E+00  0.00000000E+00  0.00000000E+00
  0.00000000E+00  0.00000000E+00  0.00000000E+00
  0.00000000E+00  0.00000000E+00  0.00000000E+00
  0.00000000E+00  0.00000000E+00  0.00000000E+00
  0.00000000E+00  0.00000000E+00  0.00000000E+00
  0.00000000E+00  0.00000000E+00  0.00000000E+00
  0.00000000E+00  0.00000000E+00  0.00000000E+00
  0.00000000E+00  0.00000000E+00  0.00000000E+00
  0.00000000E+00  0.00000000E+00  0.00000000E+00
  0.00000000E+00  0.00000000E+00  0.00000000E+00
  0.00000000E+00  0.00000000E+00  0.00000000E+00
  0.00000000E+00  0.00000000E+00  0.00000000E+00
  0.00000000E+00  0.00000000E+00  0.00000000E+00
  0.00000000E+00  0.00000000E+00  0.00000000E+00
  0.00000000E+00  0.00000000E+00  0.00000000E+00
  0.00000000E+00  0.00000000E+00  0.00000000E+00
  0.00000000E+00  0.00000000E+00  0.00000000E+00
  0.00000000E+00  0.00000000E+00  0.00000000E+00
  0.00000000E+00  0.00000000E+00  0.00000000E+00
  0.00000000E+00  0.00000000E+00  0.00000000E+00
  0.00000000E+00  0.00000000E+00  0.00000000E+00
  0.00000000E+00  0.00000000E+00  0.00000000E+00
  0.00000000E+00  0.00000000E+00  0.00000000E+00
  0.00000000E+00  0.00000000E+00  0.00000000E+00
  0.00000000E+00  0.00000000E+00  0.00000000E+00
  0.00000000E+00  0.00000000E+00  0.00000000E+00
  0.00000000E+00  0.00000000E+00  0.00000000E+00
  0.00000000E+00  0.00000000E+00  0.00000000E+00
  0.00000000E+00  0.00000000E+00  0.00000000E+00
  0.00000000E+00  0.00000000E+00  0.00000000E+00
  0.00000000E+00  0.00000000E+00  0.00000000E+00
  0.00000000E+00  0.00000000E+00  0.00000000E+00
  0.00000000E+00  0.00000000E+00  0.00000000E+00
  0.00000000E+00  0.00000000E+00  0.00000000E+00
  0.00000000E+00  0.00000000E+00  0.00000000E+00
  0.00000000E+00  0.00000000E+00  0.00000000E+00
  0.00000000E+00  0.00000000E+00  0.00000000E+00
  0.00000000E+00  0.00000000E+00  0.00000000E+00
  0.00000000E+00  0.00000000E+00  0.00000000E+00
  0.00000000E+00  0.00000000E+00  0.00000000E+00
  0.00000000E+00  0.00000000E+00  0.00000000E+00
  0.00000000E+00  0.00000000E+00  0.00000000E+00
  0.00000000E+00  0.00000000E+00  0.00000000E+00
  0.00000000E+00  0.00000000E+00  0.00000000E+00